Zn4 Cu4 P8 O28
1.0
8.293820 0.000000 0.000000
0.000000 6.990918 0.000000
0.000000 3.125664 8.801605
Zn Cu P O
4 4 8 28
direct
0.940100 0.311074 0.814211 Zn
0.440100 0.688926 0.685789 Zn
0.559900 0.311074 0.314211 Zn
0.059900 0.688926 0.185789 Zn
0.068110 0.765624 0.609819 Cu
0.931890 0.234376 0.390181 Cu
0.568110 0.234376 0.890181 Cu
0.431890 0.765624 0.109819 Cu
0.733416 0.929545 0.245736 P
0.231673 0.462751 0.973531 P
0.766584 0.929545 0.745736 P
0.268327 0.462751 0.473531 P
0.233416 0.070455 0.254264 P
0.731673 0.537249 0.526469 P
0.768327 0.537249 0.026469 P
0.266584 0.070455 0.754264 P
0.186847 0.253072 0.101062 O
0.608990 0.884703 0.684947 O
0.891010 0.884703 0.184947 O
0.393927 0.446903 0.896352 O
0.813153 0.746928 0.898938 O
0.090796 0.046648 0.364267 O
0.606073 0.553097 0.103648 O
0.091887 0.504126 0.862761 O
0.255244 0.625423 0.553012 O
0.909204 0.953352 0.635733 O
0.409204 0.046648 0.864267 O
0.758302 0.119279 0.796316 O
0.258302 0.880721 0.703684 O
0.313153 0.253072 0.601062 O
0.590796 0.953352 0.135733 O
0.108990 0.115297 0.815053 O
0.241698 0.880721 0.203684 O
0.908113 0.495874 0.137239 O
0.244756 0.625423 0.053012 O
0.755244 0.374577 0.946988 O
0.893927 0.553097 0.603648 O
0.408113 0.504126 0.362761 O
0.591887 0.495874 0.637239 O
0.391010 0.115297 0.315053 O
0.741698 0.119279 0.296316 O
0.106073 0.446903 0.396352 O
0.744756 0.374577 0.446988 O
0.686847 0.746928 0.398938 O
