Ca1 Ti4 Cu3 O12
1.0
-3.730034 3.730034 3.730034
3.730034 -3.730034 3.730034
3.730034 3.730034 -3.730034
Ca Ti Cu O
1 4 3 12
direct
0.000000 0.000000 0.000000 Ca
0.500000 0.500000 0.500000 Ti
0.000000 0.500000 0.000000 Ti
0.000000 0.000000 0.500000 Ti
0.500000 0.000000 0.000000 Ti
0.500000 0.000000 0.500000 Cu
0.500000 0.500000 0.000000 Cu
0.000000 0.500000 0.500000 Cu
0.874485 0.177183 0.697302 O
0.177183 0.302698 0.479881 O
0.125515 0.822817 0.302698 O
0.822817 0.302698 0.125515 O
0.479881 0.177183 0.302698 O
0.302698 0.125515 0.822817 O
0.697302 0.520119 0.822817 O
0.177183 0.697302 0.874485 O
0.520119 0.822817 0.697302 O
0.302698 0.479881 0.177183 O
0.697302 0.874485 0.177183 O
0.822817 0.697302 0.520119 O
