Zr10 Cu2 Sn6
1.0
   4.3231702299999997   -7.4879516400000004    0.0000000000000000
   4.3231702299999997    7.4879516400000004   -0.0000000000000000
   0.0000000000000000   -0.0000000000000000    5.8787298799999999
Zr Cu Sn
10 2 6
direct
   0.6666670000000000    0.3333330000000000    0.5000000000000000 Zr
   0.3333330000000000    0.6666670000000000    0.5000000000000000 Zr
   0.3333330000000000    0.6666670000000000    0.0000000000000000 Zr
   0.6666670000000000    0.3333330000000000    0.0000000000000000 Zr
   0.7383094900000000    0.7383094900000000    0.2500000000000000 Zr
   0.2616905100000000    0.0000000000000000    0.2500000000000000 Zr
   0.0000000000000000    0.2616905100000000    0.2500000000000000 Zr
   0.2616905100000000    0.2616905100000000    0.7500000000000000 Zr
   0.7383094900000000   -0.0000000000000000    0.7500000000000000 Zr
  -0.0000000000000000    0.7383094900000000    0.7500000000000000 Zr
  -0.0000000000000000    0.0000000000000000    0.5000000000000000 Cu
  -0.0000000000000000    0.0000000000000000    0.0000000000000000 Cu
   0.3864386900000000    0.3864386900000000    0.2500000000000000 Sn
   0.6135613100000000    0.0000000000000000    0.2500000000000000 Sn
   0.0000000000000000    0.6135613100000000    0.2500000000000000 Sn
   0.6135613100000000    0.6135613100000000    0.7500000000000000 Sn
   0.3864386900000000   -0.0000000000000000    0.7500000000000000 Sn
  -0.0000000000000000    0.3864386900000000    0.7500000000000000 Sn
