Fe2 Cu2 H8 S4 O26
1.0
   7.2282240000000000    0.0000000000000000    0.0000000000000000
   0.0000000000000000    7.4300499999999996    0.0000000000000000
   0.0000000000000000    2.7549800000000002    9.6971070000000008
Fe Cu H S O
2 2 8 4 26
direct
   0.5000000000000000    0.0000000000000000    0.0000000000000000 Fe
   0.0000000000000000    0.0000000000000000    0.0000000000000000 Fe
   0.2500000000000000    0.3962160000000000    0.3479650000000000 Cu
   0.7500000000000000    0.6037840000000000    0.6520350000000000 Cu
   0.2500000000000000    0.7499749999999999    0.0504870000000000 H
   0.7500000000000000    0.2500250000000000    0.9495130000000001 H
   0.4438040000000000    0.5745270000000000    0.7337440000000000 H
   0.9438040000000000    0.4254730000000000    0.2662560000000000 H
   0.5561960000000000    0.4254730000000000    0.2662560000000000 H
   0.0561960000000000    0.5745270000000000    0.7337440000000000 H
   0.2500000000000000    0.0741290000000000    0.4468690000000000 H
   0.7500000000000000    0.9258710000000000    0.5531310000000000 H
   0.2500000000000000    0.3606210000000000    0.0141880000000000 S
   0.7500000000000000    0.6393790000000000    0.9858120000000000 S
   0.2500000000000000    0.1184240000000000    0.7110490000000000 S
   0.7500000000000000    0.8815760000000000    0.2889510000000000 S
   0.2500000000000000    0.4847040000000000    0.1082100000000000 O
   0.7500000000000000    0.5152960000000000    0.8917900000000000 O
   0.4187220000000000    0.2397330000000000    0.0427340000000000 O
   0.9187220000000000    0.7602670000000000    0.9572660000000000 O
   0.5812780000000000    0.7602670000000000    0.9572660000000000 O
   0.0812780000000000    0.2397330000000000    0.0427340000000000 O
   0.2500000000000000    0.4804940000000000    0.8712330000000000 O
   0.7500000000000000    0.5195060000000000    0.1287670000000000 O
   0.4196580000000000    0.1034600000000000    0.7977640000000000 O
   0.9196580000000000    0.8965400000000000    0.2022360000000000 O
   0.5803420000000000    0.8965400000000000    0.2022360000000000 O
   0.0803420000000000    0.1034600000000000    0.7977640000000000 O
   0.2500000000000000    0.3047440000000000    0.6075190000000000 O
   0.7500000000000000    0.6952560000000000    0.3924810000000000 O
   0.2500000000000000    0.9777630000000000    0.6323930000000000 O
   0.7500000000000000    0.0222370000000000    0.3676070000000000 O
   0.2500000000000000    0.8853430000000000    0.0427900000000000 O
   0.7500000000000000    0.1146570000000000    0.9572100000000000 O
   0.2500000000000000    0.6293500000000000    0.3563960000000000 O
   0.7500000000000000    0.3706500000000000    0.6436040000000000 O
   0.4970780000000000    0.6258930000000000    0.6399280000000001 O
   0.9970780000000000    0.3741070000000000    0.3600720000000000 O
   0.5029220000000000    0.3741070000000000    0.3600720000000000 O
   0.0029220000000000    0.6258930000000000    0.6399280000000001 O
   0.2500000000000000    0.1505920000000000    0.3479380000000000 O
   0.7500000000000000    0.8494080000000001    0.6520620000000000 O
