Mg6 Cu4 As6 O24
1.0
6.524421 6.031069 0.000000
-6.524421 6.031069 0.000000
0.000000 2.666072 6.280902
Mg Cu As O
6 4 6 24
direct
0.743354 0.256645 0.250000 Mg
0.256645 0.743355 0.750000 Mg
0.629309 0.944141 0.120517 Mg
0.370691 0.055859 0.879483 Mg
0.055859 0.370691 0.379483 Mg
0.944141 0.629309 0.620517 Mg
0.000000 0.000000 0.000000 Cu
0.000000 0.000000 0.500000 Cu
0.497011 0.502989 0.250000 Cu
0.502989 0.497011 0.750000 Cu
0.350007 0.114437 0.376537 As
0.649993 0.885563 0.623463 As
0.885563 0.649993 0.123463 As
0.114437 0.350007 0.876537 As
0.286911 0.713089 0.250000 As
0.713089 0.286911 0.750000 As
0.251394 0.819402 0.021713 O
0.748606 0.180598 0.978287 O
0.180598 0.748606 0.478287 O
0.819402 0.251394 0.521713 O
0.495174 0.275669 0.314552 O
0.504826 0.724331 0.685448 O
0.724331 0.504826 0.185448 O
0.275669 0.495174 0.814552 O
0.828362 0.834193 0.111432 O
0.171638 0.165807 0.888568 O
0.165807 0.171638 0.388568 O
0.834193 0.828362 0.611432 O
0.666163 0.011448 0.377345 O
0.333837 0.988552 0.622655 O
0.988552 0.333837 0.122655 O
0.011448 0.666163 0.877345 O
0.404321 0.025434 0.179487 O
0.595679 0.974566 0.820513 O
0.974566 0.595679 0.320513 O
0.025434 0.404321 0.679487 O
0.488188 0.725979 0.235172 O
0.511812 0.274021 0.764828 O
0.274021 0.511812 0.264828 O
0.725979 0.488188 0.735172 O
