Dy6 Cu2 Si2 S14
1.0
   4.9435669999999998   -8.5625090000000004    0.0000000000000000
   4.9435669999999998    8.5625090000000004    0.0000000000000000
   0.0000000000000000    0.0000000000000000    5.7031710000000002
Dy Cu Si S
6 2 2 14
direct
   0.1307630000000000    0.3573240000000000    0.7455600000000000 Dy
   0.6426760000000000    0.7734390000000000    0.7455600000000000 Dy
   0.7734390000000000    0.1307630000000000    0.2455600000000000 Dy
   0.3573240000000000    0.2265610000000000    0.2455600000000000 Dy
   0.2265610000000000    0.8692370000000000    0.7455600000000000 Dy
   0.8692370000000000    0.6426760000000000    0.2455600000000000 Dy
   0.0000000000000000    0.0000000000000000    0.7015200000000000 Cu
   0.0000000000000000    0.0000000000000000    0.2015200000000000 Cu
   0.6666670000000000    0.3333330000000000    0.8340730000000000 Si
   0.3333330000000000    0.6666670000000000    0.3340730000000000 Si
   0.6666670000000000    0.3333330000000000    0.4634000000000000 S
   0.9041370000000000    0.7415440000000000    0.7185630000000000 S
   0.1625920000000000    0.9041370000000000    0.2185630000000000 S
   0.8374080000000000    0.0958630000000000    0.7185630000000000 S
   0.8942040000000000    0.4178130000000000    0.9833250000000000 S
   0.7415440000000000    0.8374080000000000    0.2185630000000000 S
   0.2584560000000000    0.1625920000000000    0.7185630000000000 S
   0.1057960000000000    0.5821870000000000    0.4833250000000000 S
   0.4763910000000000    0.8942040000000000    0.4833250000000000 S
   0.5821870000000000    0.4763910000000000    0.9833250000000000 S
   0.3333330000000000    0.6666670000000000    0.9634000000000000 S
   0.0958630000000000    0.2584560000000000    0.2185630000000000 S
   0.4178130000000000    0.5236090000000000    0.4833250000000000 S
   0.5236090000000000    0.1057960000000000    0.9833250000000000 S
