Sr2 Tl1 Cu1 O5
1.0
3.740781 0.000000 0.000000
0.000000 3.740781 0.000000
0.000000 0.000000 9.120042
Sr Tl Cu O
2 1 1 5
direct
0.500000 0.500000 0.286085 Sr
0.500000 0.500000 0.713915 Sr
0.000000 0.000000 0.000000 Tl
0.000000 0.000000 0.500000 Cu
0.000000 0.000000 0.231185 O
0.000000 0.000000 0.768815 O
0.000000 0.500000 0.500000 O
0.500000 0.500000 0.000000 O
0.500000 0.000000 0.500000 O
