Li2 Ti1 Cu1 O4
1.0
2.996887 0.000000 0.000000
0.000000 5.066097 0.000000
0.000000 1.516403 4.872337
Li Ti Cu O
2 1 1 4
direct
0.000000 0.000000 0.000000 Li
0.500000 0.500000 0.000000 Li
0.000000 0.500000 0.500000 Ti
0.500000 0.000000 0.500000 Cu
0.000000 0.733958 0.738360 O
0.500000 0.272713 0.723087 O
0.000000 0.266042 0.261640 O
0.500000 0.727287 0.276913 O
