Lu4 Cu2 B8 O20
1.0
7.206262 0.000000 0.000000
0.000000 4.561302 0.000000
0.000000 0.013465 9.297988
Lu Cu B O
4 2 8 20
direct
0.602060 0.998133 0.164005 Lu
0.102060 0.001867 0.335995 Lu
0.897940 0.998133 0.664005 Lu
0.397940 0.001867 0.835995 Lu
0.000000 0.000000 0.000000 Cu
0.500000 0.000000 0.500000 Cu
0.229552 0.538713 0.578619 B
0.729552 0.461287 0.921381 B
0.770448 0.461287 0.421381 B
0.270448 0.538713 0.078619 B
0.402356 0.471143 0.335470 B
0.902356 0.528857 0.164530 B
0.097644 0.471143 0.835470 B
0.597644 0.528857 0.664530 B
0.089819 0.678024 0.138874 O
0.589819 0.321976 0.361126 O
0.891253 0.226852 0.460186 O
0.391253 0.773148 0.039814 O
0.108747 0.773148 0.539814 O
0.608747 0.226852 0.960186 O
0.089615 0.787513 0.831390 O
0.589615 0.212487 0.668610 O
0.910385 0.212487 0.168610 O
0.410385 0.787513 0.331390 O
0.161859 0.338782 0.696395 O
0.661859 0.661218 0.803605 O
0.838141 0.661218 0.303605 O
0.338141 0.338782 0.196395 O
0.224229 0.357228 0.949309 O
0.724229 0.642772 0.550691 O
0.775771 0.642772 0.050691 O
0.275771 0.357228 0.449309 O
0.910181 0.321976 0.861126 O
0.410181 0.678024 0.638874 O
