Ba4 Cu2 Si4 O14
1.0
5.313527 4.330548 0.000000
-5.313527 4.330548 0.000000
0.000000 2.979099 8.130968
Ba Cu Si O
4 2 4 14
direct
0.732847 0.812659 0.972595 Ba
0.812659 0.732847 0.472595 Ba
0.187341 0.267153 0.527405 Ba
0.267153 0.187341 0.027405 Ba
0.736852 0.263148 0.250000 Cu
0.263148 0.736852 0.750000 Cu
0.159935 0.615490 0.140206 Si
0.840065 0.384510 0.859794 Si
0.384510 0.840065 0.359794 Si
0.615490 0.159935 0.640206 Si
0.965254 0.626987 0.764722 O
0.034746 0.373013 0.235278 O
0.776230 0.016477 0.636818 O
0.330556 0.669444 0.250000 O
0.627470 0.311667 0.460945 O
0.016477 0.776230 0.136818 O
0.311667 0.627470 0.960945 O
0.223770 0.983523 0.363182 O
0.669444 0.330556 0.750000 O
0.372530 0.688333 0.539055 O
0.373013 0.034746 0.735278 O
0.626987 0.965254 0.264722 O
0.983523 0.223770 0.863182 O
0.688333 0.372530 0.039055 O
