La1 Mg14 Cu1
1.0
   6.6451498999999998    0.2311930000000000    0.0000000000000000
  -3.1223559700000001    5.4080785200000001    0.0000000000000000
   0.0000000000000000    0.0000000000000000   10.1954377699999998
La Mg Cu
1 14 1
direct
   0.1196380000000000    0.8098185000000000    0.1250000000000000 La
   0.1623800300000000    0.3311895200000000    0.6250000000000000 Mg
   0.1687918600000000    0.8343954300000000    0.6250000000000000 Mg
   0.6193436800000000    0.3184087800000000    0.1250000000000000 Mg
   0.6652629200000000    0.3260830700000000    0.6250000000000000 Mg
   0.6193436800000000    0.8009339000000000    0.1250000000000000 Mg
   0.6652629200000000    0.8391788500000000    0.6250000000000000 Mg
   0.3441307200000000    0.1754913800000000    0.3787869600000000 Mg
   0.3441307200000000    0.1754913800000000    0.8712130400000000 Mg
   0.3441307200000000    0.6686403400000001    0.3787869600000000 Mg
   0.3441307200000000    0.6686403400000001    0.8712130400000000 Mg
   0.8675758099999999    0.1837884000000000    0.3446998600000000 Mg
   0.8675758099999999    0.1837884000000000    0.9053001400000000 Mg
   0.8268242300000000    0.6634126200000000    0.3898366300000000 Mg
   0.8268242300000000    0.6634126200000000    0.8601633700000000 Mg
   0.2146539600000000    0.3573264800000000    0.1250000000000000 Cu
