Ta2 Zn4 Cu2 O12
1.0
7.433383 0.000000 0.000000
0.000000 5.393275 0.000000
0.000000 1.124968 5.507264
Ta Zn Cu O
2 4 2 12
direct
0.000000 0.000000 0.500000 Ta
0.500000 0.000000 0.500000 Ta
0.750000 0.967768 0.044369 Zn
0.750000 0.488335 0.557974 Zn
0.250000 0.511665 0.442026 Zn
0.250000 0.032232 0.955631 Zn
0.000000 0.500000 0.000000 Cu
0.500000 0.500000 0.000000 Cu
0.441609 0.178267 0.159076 O
0.574439 0.715481 0.350362 O
0.558391 0.821733 0.840924 O
0.074439 0.284519 0.649638 O
0.250000 0.856063 0.536378 O
0.425561 0.284519 0.649638 O
0.925561 0.715481 0.350362 O
0.058391 0.178267 0.159076 O
0.750000 0.372056 0.927839 O
0.941609 0.821733 0.840924 O
0.250000 0.627944 0.072161 O
0.750000 0.143937 0.463622 O
