Ba4 Cu4 O10
1.0
-2.841369 2.851392 8.450376
2.841369 -2.851392 8.450376
2.841369 2.851392 -8.450376
Ba Cu O
4 4 10
direct
0.602301 0.120702 0.493279 Ba
0.372576 0.879298 0.481599 Ba
0.102301 0.609023 0.481599 Ba
0.872576 0.390977 0.493279 Ba
0.989114 0.000000 0.989114 Cu
0.489114 0.500000 0.989114 Cu
0.228135 0.294813 0.022949 Cu
0.728135 0.705187 0.933322 Cu
0.233186 0.745962 0.983055 O
0.237093 0.254038 0.487224 O
0.733186 0.750131 0.487224 O
0.737093 0.249869 0.983055 O
0.137497 0.110190 0.957283 O
0.847093 0.889810 0.027307 O
0.637497 0.680214 0.027307 O
0.347093 0.319786 0.957283 O
0.945803 0.454480 0.900283 O
0.445803 0.545520 0.491323 O
