Ca4 Cu4 Bi4 O20
1.0
11.014634 0.000000 0.000000
0.000000 5.617450 0.000000
0.000000 1.654526 7.767446
Ca Cu Bi O
4 4 4 20
direct
0.095597 0.531799 0.788819 Ca
0.904403 0.468201 0.211181 Ca
0.595597 0.468201 0.711181 Ca
0.404403 0.531799 0.288819 Ca
0.359053 0.139113 0.033136 Cu
0.640947 0.860887 0.966864 Cu
0.859053 0.860887 0.466864 Cu
0.140947 0.139113 0.533136 Cu
0.899875 0.995443 0.841016 Bi
0.100125 0.004557 0.158984 Bi
0.600125 0.995443 0.341016 Bi
0.399875 0.004557 0.658984 Bi
0.917329 0.723081 0.684904 O
0.001886 0.225273 0.644163 O
0.788472 0.105063 0.298144 O
0.464004 0.758166 0.498369 O
0.707472 0.767572 0.538014 O
0.792528 0.767572 0.038014 O
0.498114 0.225273 0.144163 O
0.501886 0.774727 0.855837 O
0.535996 0.241834 0.501631 O
0.417329 0.276919 0.815096 O
0.292528 0.232428 0.461986 O
0.082671 0.276919 0.315096 O
0.582671 0.723081 0.184904 O
0.207472 0.232428 0.961986 O
0.964004 0.241834 0.001631 O
0.035996 0.758166 0.998369 O
0.211528 0.894937 0.701856 O
0.998114 0.774727 0.355837 O
0.288472 0.894937 0.201856 O
0.711528 0.105063 0.798144 O
