Ce2 Fe2 Cu2
1.0
  -3.7850139999999999   -0.1114700000000000   -3.5812620000000002
   3.7850139999999999   -3.5812620000000002   -0.1114700000000000
  -3.7850139999999999   -3.5812620000000002   -0.1114700000000000
Ce Fe Cu
2 2 2
direct
   0.5000000000000000    0.7584200000000000    0.7415800000000000 Ce
   0.0000000000000000    0.9915800000000000    0.0084200000000000 Ce
   0.2500000000000000    0.8750000000000000    0.3750000000000000 Fe
   0.7500000000000000    0.3750000000000000    0.3750000000000000 Fe
   0.7500000000000000    0.3750000000000000    0.8750000000000000 Cu
   0.2500000000000000    0.3750000000000000    0.3750000000000000 Cu
