Ce1 Cu1 Si1
1.0
   2.0517910399999999   -3.5538056500000001   -0.0000000000000000
   2.0517910399999999    3.5538056500000001    0.0000000000000000
  -0.0000000000000000    0.0000000000000000    4.1213769600000001
Ce Cu Si
1 1 1
direct
   0.3333330000000000    0.6666670000000000    0.0000000000000000 Ce
   0.6666670000000000    0.3333330000000000    0.5000000000000000 Cu
   0.0000000000000000   -0.0000000000000000    0.5000000000000000 Si
