Eu2 Cu2 P2
1.0
   4.0393750500000003   -0.0000000100000000    0.0000000000000000
  -2.0196880400000001    3.4982019800000002   -0.0000000000000000
  -0.0000000000000000   -0.0000000000000000    8.2893921400000004
Eu Cu P
2 2 2
direct
   0.0000000000000000   -0.0000000000000000    0.0000000000000000 Eu
   0.0000000000000000   -0.0000000000000000    0.5000000000000000 Eu
   0.6666670000000000    0.3333330000000000    0.2499796100000000 Cu
   0.3333330000000000    0.6666670000000000    0.7500203900000000 Cu
   0.6666670000000000    0.3333330000000000    0.7499992400000000 P
   0.3333330000000000    0.6666670000000000    0.2500007600000000 P
