Na5 Cu7 O13
1.0
6.812871 0.000000 0.000000
-1.640960 6.668577 0.000000
-1.288258 -1.473749 7.352932
Na Cu O
5 7 13
direct
0.080580 0.581938 0.825233 Na
0.777187 0.275971 0.456934 Na
0.355548 0.848122 0.294814 Na
0.926194 0.432205 0.144341 Na
0.513674 0.010496 0.971001 Na
0.004491 0.006428 0.006336 Cu
0.570138 0.568556 0.854451 Cu
0.141874 0.142600 0.718549 Cu
0.711198 0.716091 0.570033 Cu
0.292125 0.299080 0.435719 Cu
0.852437 0.855430 0.284101 Cu
0.425116 0.425972 0.140636 Cu
0.573920 0.356000 0.972992 O
0.001514 0.228014 0.901627 O
0.150145 0.931177 0.836680 O
0.571175 0.785260 0.741965 O
0.134779 0.339304 0.593098 O
0.717100 0.499597 0.684871 O
0.704528 0.929328 0.450909 O
0.275733 0.507255 0.299491 O
0.847269 0.635848 0.396019 O
0.433181 0.212055 0.265384 O
0.851608 0.075383 0.173354 O
0.008513 0.787304 0.120160 O
0.420433 0.642368 0.021539 O
