Na12 Cu2 O8
1.0
6.678502 3.823855 0.000000
-6.678502 3.823855 0.000000
0.000000 0.199674 5.851597
Na Cu O
12 2 8
direct
0.284849 0.143287 0.536445 Na
0.143287 0.284849 0.036445 Na
0.930848 0.467378 0.870064 Na
0.467378 0.930848 0.370064 Na
0.467109 0.540831 0.368991 Na
0.540831 0.467109 0.868991 Na
0.143848 0.860643 0.035883 Na
0.860643 0.143848 0.535883 Na
0.540243 0.076772 0.876299 Na
0.076772 0.540243 0.376299 Na
0.860753 0.718793 0.535153 Na
0.718793 0.860753 0.035153 Na
0.671862 0.339758 0.263580 Cu
0.339758 0.671862 0.763580 Cu
0.808163 0.627964 0.151661 O
0.627964 0.808163 0.651661 O
0.680233 0.341868 0.599356 O
0.341868 0.680233 0.099356 O
0.183120 0.807765 0.651001 O
0.807765 0.183120 0.151001 O
0.191045 0.380362 0.640521 O
0.380362 0.191045 0.140521 O
