La2 Ga1 Cu1
1.0
  -5.3479840000000003    7.3140739999999997   10.2450960000000002
   5.3479840000000003   -7.3140739999999997   10.2450960000000002
   5.3479840000000003    7.3140739999999997  -10.2450960000000002
La Ga Cu
2 1 1
direct
   0.0000000000000000    0.2437370000000000    0.2437370000000000 La
   0.0000000000000000    0.7562630000000000    0.7562630000000000 La
   0.0000000000000000    0.5000000000000000    0.5000000000000000 Ga
   0.0000000000000000    0.0000000000000000    0.0000000000000000 Cu
