Tb6 Cu6 W12 O48
1.0
-6.911888 0.000000 0.000000
3.134473 9.633735 0.000000
-0.430734 -4.641813 -14.629479
Tb Cu W O
6 6 12 48
direct
0.364111 0.052192 0.343872 Tb
0.033063 0.393054 0.661886 Tb
0.966937 0.606946 0.338114 Tb
0.316191 0.295123 0.996986 Tb
0.635889 0.947808 0.656128 Tb
0.683809 0.704877 0.003014 Tb
0.658615 0.334772 0.832138 Cu
0.846253 0.166654 0.160935 Cu
0.341385 0.665228 0.167862 Cu
0.153747 0.833346 0.839065 Cu
0.500000 0.500000 0.500000 Cu
0.000000 0.000000 0.000000 Cu
0.166657 0.560901 0.931263 W
0.147287 0.099065 0.731585 W
0.981042 0.244810 0.387349 W
0.018958 0.755190 0.612651 W
0.642160 0.591146 0.723248 W
0.498655 0.765613 0.393208 W
0.664186 0.083344 0.939458 W
0.852713 0.900935 0.268415 W
0.357840 0.408854 0.276752 W
0.833343 0.439099 0.068737 W
0.501345 0.234387 0.606792 W
0.335814 0.916656 0.060542 W
0.574457 0.977037 0.824654 O
0.661507 0.272715 0.935371 O
0.090016 0.419199 0.007132 O
0.054936 0.884096 0.060781 O
0.233564 0.250839 0.665162 O
0.617290 0.874834 0.504561 O
0.371007 0.562092 0.721353 O
0.943529 0.600745 0.673552 O
0.410956 0.518074 0.926394 O
0.710939 0.217904 0.386182 O
0.382710 0.125166 0.495439 O
0.056471 0.399255 0.326448 O
0.440688 0.577966 0.413676 O
0.099496 0.866805 0.254028 O
0.001010 0.939471 0.608972 O
0.589044 0.481926 0.073606 O
0.559312 0.422034 0.586324 O
0.727477 0.689338 0.842945 O
0.610272 0.925226 0.001476 O
0.945064 0.115904 0.939219 O
0.277355 0.206992 0.843656 O
0.903169 0.086142 0.245267 O
0.998990 0.060529 0.391028 O
0.928936 0.648158 0.494557 O
0.722645 0.793008 0.156344 O
0.957847 0.549899 0.178267 O
0.767206 0.251307 0.083224 O
0.389728 0.074774 0.998524 O
0.286912 0.257076 0.336244 O
0.342907 0.598059 0.268135 O
0.338493 0.727285 0.064629 O
0.425543 0.022963 0.175346 O
0.909984 0.580801 0.992868 O
0.250716 0.801424 0.401582 O
0.232794 0.748693 0.916776 O
0.749284 0.198576 0.598418 O
0.577970 0.912070 0.324011 O
0.766436 0.749161 0.334838 O
0.422030 0.087930 0.675989 O
0.042153 0.450101 0.821733 O
0.096831 0.913858 0.754733 O
0.272523 0.310662 0.157055 O
0.289061 0.782096 0.613818 O
0.071064 0.351842 0.505443 O
0.657093 0.401941 0.731865 O
0.713088 0.742924 0.663756 O
0.628993 0.437908 0.278647 O
0.900504 0.133195 0.745972 O
