Li4 Cr2 Cu2 O8
1.0
5.891687 -0.188286 0.001620
0.170674 5.892223 0.001620
-3.030250 -2.851092 4.160672
Li Cr Cu O
4 2 2 8
direct
0.000000 0.500000 0.500000 Li
0.500000 0.500000 0.500000 Li
0.500000 0.000000 0.000000 Li
0.500000 0.500000 0.000000 Li
0.000000 0.500000 0.000000 Cr
0.500000 0.000000 0.500000 Cr
0.000000 0.000000 0.500000 Cu
0.000000 0.000000 0.000000 Cu
0.244584 0.755437 0.015578 O
0.247960 0.227206 0.487582 O
0.244563 0.755416 0.484422 O
0.772794 0.752040 0.012418 O
0.227206 0.247960 0.987582 O
0.755437 0.244584 0.515578 O
0.752040 0.772794 0.512418 O
0.755416 0.244563 0.984422 O
