Na6 Cu2 B2 S2 O14
1.0
   7.2258589999999998    0.0000000000000000    0.0000000000000000
   0.0000000000000000    5.1274150000000001    0.0000000000000000
   0.0000000000000000    0.1682760000000000    8.7667240000000000
Na Cu B S O
6 2 2 2 14
direct
   0.7500000000000000    0.2422770000000000    0.9279670000000000 Na
   0.0052180000000000    0.7507860000000000    0.7504300000000000 Na
   0.4947820000000000    0.7507860000000000    0.7504300000000000 Na
   0.5052179999999999    0.2492140000000000    0.2495700000000000 Na
   0.9947820000000001    0.2492140000000000    0.2495700000000000 Na
   0.2500000000000000    0.7577230000000000    0.0720330000000000 Na
   0.2500000000000000    0.2230120000000000    0.6616640000000000 Cu
   0.7500000000000000    0.7769880000000000    0.3383360000000000 Cu
   0.2500000000000000    0.2647090000000000    0.9352920000000000 B
   0.7500000000000000    0.7352910000000000    0.0647080000000000 B
   0.7500000000000000    0.2929870000000000    0.5838179999999999 S
   0.2500000000000000    0.7070130000000000    0.4161820000000000 S
   0.7500000000000000    0.7156550000000000    0.9113230000000000 O
   0.2500000000000000    0.0280760000000000    0.8585890000000000 O
   0.2500000000000000    0.4761430000000000    0.8325220000000000 O
   0.9162330000000000    0.2246320000000000    0.6757550000000000 O
   0.5837670000000000    0.2246320000000000    0.6757550000000000 O
   0.7500000000000000    0.5834570000000000    0.5482960000000000 O
   0.2500000000000000    0.8445200000000000    0.5650620000000000 O
   0.7500000000000000    0.1554800000000000    0.4349380000000000 O
   0.2500000000000000    0.4165430000000000    0.4517040000000000 O
   0.4162330000000000    0.7753679999999999    0.3242450000000000 O
   0.0837670000000000    0.7753679999999999    0.3242450000000000 O
   0.7500000000000000    0.5238570000000000    0.1674780000000000 O
   0.7500000000000000    0.9719240000000000    0.1414110000000000 O
   0.2500000000000000    0.2843450000000000    0.0886770000000000 O
