Ca4 Cu4 O8
1.0
3.600677 0.000000 0.000000
-0.649018 7.756480 0.000000
-1.176365 -2.294667 7.801822
Ca Cu O
4 4 8
direct
0.406303 0.657131 0.343060 Ca
0.593697 0.342869 0.656940 Ca
0.257455 0.288784 0.988931 Ca
0.742545 0.711216 0.011069 Ca
0.143184 0.691452 0.704360 Cu
0.825240 0.983363 0.649469 Cu
0.174760 0.016637 0.350531 Cu
0.856816 0.308548 0.295640 Cu
0.343887 0.236824 0.307163 O
0.312752 0.847179 0.171807 O
0.687248 0.152821 0.828193 O
0.656113 0.763176 0.692837 O
0.199386 0.511375 0.831750 O
0.991117 0.834950 0.459361 O
0.800614 0.488625 0.168250 O
0.008883 0.165050 0.540639 O
