La4 Cu2 Sb2 S10
1.0
  -3.7822499999999999    3.8399060000000000    6.6562109999999999
   3.7822499999999999   -3.8399060000000000    6.6562109999999999
   3.7822499999999999    3.8399060000000000   -6.6562109999999999
La Cu Sb S
4 2 2 10
direct
   0.7823090000000000    0.5000000000000000    0.2823090000000000 La
   0.2823090000000000    0.0000000000000000    0.2823090000000000 La
   0.4159430000000000    0.8842840000000000    0.8002270000000000 La
   0.9159430000000000    0.1157160000000000    0.5316590000000000 La
   0.3166620000000000    0.5000000000000000    0.8166620000000000 Cu
   0.8166620000000000    0.0000000000000000    0.8166620000000000 Cu
   0.7474400000000000    0.5791740000000000    0.8266140000000000 Sb
   0.2474400000000000    0.4208260000000000    0.1682660000000000 Sb
   0.0132370000000000    0.5598210000000000    0.7756740000000000 S
   0.2158540000000000    0.4401790000000000    0.4534170000000000 S
   0.7158540000000000    0.2624370000000000    0.7756740000000000 S
   0.5132370000000001    0.7375630000000000    0.4534170000000000 S
   0.5603170000000000    0.7854340000000000    0.1352020000000000 S
   0.3497680000000000    0.2145660000000000    0.7748830000000000 S
   0.8497680000000000    0.0748840000000000    0.1352020000000000 S
   0.0603170000000000    0.9251160000000000    0.7748830000000000 S
   0.0331690000000000    0.7419360000000000    0.2751050000000000 S
   0.5331690000000000    0.2580640000000000    0.2912340000000000 S
