Cr3 Cu1 P4 O16
1.0
5.806100 0.000000 0.000000
0.000000 4.786745 0.000000
0.000000 0.156066 9.902872
Cr Cu P O
3 1 4 16
direct
0.000000 0.471670 0.771734 Cr
0.500000 0.533402 0.224236 Cr
0.500000 0.968889 0.730047 Cr
0.000000 0.073324 0.282339 Cu
0.500000 0.090363 0.404540 P
0.500000 0.406949 0.907604 P
0.000000 0.574209 0.094528 P
0.000000 0.920817 0.594018 P
0.500000 0.161743 0.553486 O
0.299244 0.252003 0.327716 O
0.700756 0.252003 0.327716 O
0.000000 0.234795 0.613683 O
0.000000 0.255450 0.109675 O
0.294710 0.261464 0.828470 O
0.705290 0.261464 0.828470 O
0.500000 0.318400 0.055263 O
0.000000 0.661991 0.945876 O
0.788839 0.708807 0.168316 O
0.211161 0.708807 0.168316 O
0.500000 0.722900 0.890042 O
0.500000 0.778268 0.382224 O
0.795461 0.766900 0.672874 O
0.204539 0.766900 0.672874 O
0.000000 0.848480 0.445955 O
