Zn2 Cu4 O8
1.0
-2.983187 3.010351 4.141162
2.983187 -3.010351 4.141162
2.983187 3.010351 -4.141162
Zn Cu O
2 4 8
direct
0.000000 0.500000 0.000000 Zn
0.000000 0.000000 0.500000 Zn
0.615300 0.865300 0.750000 Cu
0.384700 0.134700 0.250000 Cu
0.000000 0.500000 0.500000 Cu
0.500000 0.500000 0.000000 Cu
0.783030 0.267479 0.515551 O
0.255698 0.735945 0.980247 O
0.251929 0.267479 0.984449 O
0.255698 0.275452 0.519753 O
0.744302 0.724548 0.480247 O
0.744302 0.264055 0.019753 O
0.748071 0.732521 0.015551 O
0.216970 0.732521 0.484449 O
