Zn3 Cu2 As4 O16
1.0
5.445404 0.000000 0.000000
2.556048 6.493706 0.000000
1.620639 1.110794 9.275670
Zn Cu As O
3 2 4 16
direct
0.621206 0.829780 0.105180 Zn
0.125499 0.814575 0.616801 Zn
0.865866 0.190300 0.386113 Zn
0.250988 0.496840 0.248187 Cu
0.744498 0.499916 0.753388 Cu
0.723986 0.724077 0.432642 As
0.232588 0.722123 0.933318 As
0.778531 0.268855 0.064841 As
0.282187 0.268913 0.575351 As
0.561780 0.504286 0.137093 O
0.056039 0.505727 0.634028 O
0.937296 0.493207 0.363828 O
0.439056 0.489764 0.863278 O
0.009514 0.158384 0.183879 O
0.528585 0.146140 0.675821 O
0.494338 0.846632 0.316994 O
0.995930 0.842581 0.819340 O
0.603508 0.120049 0.051426 O
0.101015 0.123459 0.544711 O
0.047032 0.654920 0.095920 O
0.545771 0.657083 0.596166 O
0.446464 0.345225 0.404516 O
0.938926 0.356304 0.903367 O
0.902284 0.874777 0.454063 O
0.397604 0.877115 0.953291 O
