Y2 Mg1 Cu1 O4
1.0
  -2.0329030000000001    2.0329030000000001    8.2764720000000001
   2.0329030000000001   -2.0329030000000001    8.2764720000000001
   2.0329030000000001    2.0329030000000001   -8.2764720000000001
Y Mg Cu O
2 1 1 4
direct
   0.3077640000000000    0.3077640000000000    0.0000000000000000 Y
   0.6922360000000000    0.6922360000000000    0.0000000000000000 Y
   0.5000000000000000    0.5000000000000000    0.0000000000000000 Mg
   0.0000000000000000    0.0000000000000000    0.0000000000000000 Cu
   0.5000000000000000    0.0000000000000000    0.5000000000000000 O
   0.7500000000000000    0.2500000000000000    0.5000000000000000 O
   0.0000000000000000    0.5000000000000000    0.5000000000000000 O
   0.2500000000000000    0.7500000000000000    0.5000000000000000 O
