Y1 Cu3 W4 O12
1.0
6.659394 0.000000 0.000000
-2.178564 6.359754 0.000000
-2.229462 -3.158646 5.551101
Y Cu W O
1 3 4 12
direct
0.000000 0.000000 0.000000 Y
0.000000 0.500000 0.500000 Cu
0.500000 0.000000 0.500000 Cu
0.500000 0.500000 0.000000 Cu
0.500000 0.000000 0.000000 W
0.500000 0.500000 0.500000 W
0.000000 0.000000 0.500000 W
0.000000 0.500000 0.000000 W
0.705476 0.881288 0.175183 O
0.294524 0.118712 0.824817 O
0.292010 0.463015 0.166584 O
0.121404 0.830922 0.287279 O
0.191943 0.724655 0.895013 O
0.835743 0.705514 0.545020 O
0.533801 0.827917 0.710313 O
0.808057 0.275345 0.104987 O
0.707990 0.536985 0.833416 O
0.878596 0.169078 0.712721 O
0.164257 0.294486 0.454980 O
0.466199 0.172083 0.289687 O
