Mg2 Cu2 P8 O24
1.0
4.188968 5.964661 0.000000
-4.188968 5.964661 0.000000
0.000000 4.822571 8.816504
Mg Cu P O
2 2 8 24
direct
0.951454 0.048546 0.250000 Mg
0.048546 0.951454 0.750000 Mg
0.500000 0.000000 0.500000 Cu
0.000000 0.500000 0.000000 Cu
0.316605 0.293417 0.196045 P
0.706583 0.683395 0.303955 P
0.683395 0.706583 0.803955 P
0.293417 0.316605 0.696045 P
0.732375 0.253036 0.976758 P
0.746964 0.267625 0.523242 P
0.267625 0.746964 0.023242 P
0.253036 0.732375 0.476758 P
0.316522 0.530802 0.149935 O
0.469198 0.683478 0.350065 O
0.683478 0.469198 0.850065 O
0.530802 0.316522 0.649935 O
0.506042 0.211381 0.066627 O
0.788619 0.493958 0.433373 O
0.493958 0.788619 0.933373 O
0.211381 0.506042 0.566627 O
0.346375 0.190410 0.348591 O
0.809590 0.653625 0.151409 O
0.653625 0.809590 0.651409 O
0.190410 0.346375 0.848591 O
0.125822 0.277402 0.177295 O
0.722598 0.874178 0.322705 O
0.874178 0.722598 0.822705 O
0.277402 0.125822 0.677295 O
0.813765 0.284359 0.083124 O
0.715641 0.186235 0.416876 O
0.186235 0.715641 0.916876 O
0.284359 0.813765 0.583124 O
0.849815 0.092334 0.902278 O
0.907666 0.150185 0.597722 O
0.150185 0.907666 0.097722 O
0.092334 0.849815 0.402278 O
