Al4 In1 Cu1 S8
1.0
   6.2845339999999998   -3.5859960000000002    0.0000000000000000
   6.2845339999999998    3.5859960000000002    0.0000000000000000
   4.2383410000000001    0.0000000000000000    5.8643999999999998
Al In Cu S
4 1 1 8
direct
   0.3751090000000000    0.3751090000000000    0.3751090000000000 Al
   0.5213420000000000    0.9922800000000001    0.9922800000000001 Al
   0.9922800000000001    0.9922800000000001    0.5213420000000000 Al
   0.9922800000000001    0.5213420000000000    0.9922800000000001 Al
   0.9949610000000000    0.9949610000000000    0.9949610000000000 In
   0.6259760000000000    0.6259760000000000    0.6259760000000000 Cu
   0.2340660000000000    0.7455690000000000    0.7455690000000000 S
   0.7455690000000000    0.7455690000000000    0.2340660000000000 S
   0.7455690000000000    0.2340660000000000    0.7455690000000000 S
   0.7566290000000000    0.7566290000000000    0.7566290000000000 S
   0.7699690000000000    0.2518910000000000    0.2518910000000000 S
   0.2518910000000000    0.2518910000000000    0.7699690000000000 S
   0.2518910000000000    0.7699690000000000    0.2518910000000000 S
   0.2424670000000000    0.2424670000000000    0.2424670000000000 S
