Zn1 Cu3 Sb4 O12
1.0
-3.909211 3.909211 3.909211
3.909211 -3.909211 3.909211
3.909211 3.909211 -3.909211
Zn Cu Sb O
1 3 4 12
direct
0.000000 0.000000 0.000000 Zn
0.500000 0.500000 0.000000 Cu
0.500000 0.000000 0.500000 Cu
0.000000 0.500000 0.500000 Cu
0.500000 0.500000 0.500000 Sb
0.000000 0.500000 0.000000 Sb
0.000000 0.000000 0.500000 Sb
0.500000 0.000000 0.000000 Sb
0.301632 0.825356 0.126988 O
0.698368 0.174644 0.873012 O
0.698368 0.825356 0.523723 O
0.873012 0.698368 0.174644 O
0.825356 0.126988 0.301632 O
0.174644 0.476277 0.301632 O
0.476277 0.301632 0.174644 O
0.174644 0.873012 0.698368 O
0.301632 0.174644 0.476277 O
0.126988 0.301632 0.825356 O
0.825356 0.523723 0.698368 O
0.523723 0.698368 0.825356 O
