Ca4 Cu2 Ir2 O12
1.0
4.680233 4.511278 0.000000
-4.680233 4.511278 0.000000
0.000000 0.261620 6.481726
Ca Cu Ir O
4 2 2 12
direct
0.600687 0.399313 0.000000 Ca
0.405749 0.594251 0.500000 Ca
0.740133 0.888953 0.125385 Ca
0.111047 0.259867 0.874615 Ca
0.836382 0.163618 0.500000 Cu
0.186653 0.813347 0.000000 Cu
0.497519 0.999706 0.737975 Ir
0.000294 0.502481 0.262025 Ir
0.881446 0.210538 0.205129 O
0.789462 0.118554 0.794871 O
0.106885 0.787540 0.286753 O
0.212460 0.893115 0.713247 O
0.027183 0.386098 0.542764 O
0.613902 0.972817 0.457236 O
0.971020 0.608402 0.967972 O
0.391598 0.028980 0.032028 O
0.708645 0.573194 0.300608 O
0.426806 0.291355 0.699392 O
0.277331 0.434869 0.178423 O
0.565131 0.722669 0.821577 O
