Cu2 Ag1 O4
1.0
3.736742 0.000000 0.000000
0.756328 4.728191 0.000000
0.154740 0.658738 5.220754
Cu Ag O
2 1 4
direct
0.000000 0.500000 0.500000 Cu
0.500000 0.000000 0.500000 Cu
0.000000 0.000000 0.000000 Ag
0.302597 0.243908 0.727757 O
0.832446 0.770563 0.718991 O
0.697403 0.756092 0.272243 O
0.167554 0.229437 0.281009 O
