Cu4 Te4 S4 Br4
1.0
   4.9130200000000004    0.0000000000000000    0.0000000000000000
   0.0000000000000000    8.0107269999999993    0.0000000000000000
   0.0000000000000000    5.4544629999999996   11.1676029999999997
Cu Te S Br
4 4 4 4
direct
   0.8709280000000000    0.8062200000000000    0.2517150000000000 Cu
   0.1290720000000000    0.1937800000000000    0.7482850000000000 Cu
   0.3709280000000000    0.1937800000000000    0.2482850000000000 Cu
   0.6290720000000000    0.8062200000000000    0.7517150000000000 Cu
   0.5040570000000000    0.7090180000000000    0.1464690000000000 Te
   0.4959430000000000    0.2909820000000000    0.8535310000000000 Te
   0.0040570000000000    0.2909820000000000    0.3535310000000000 Te
   0.9959430000000000    0.7090180000000000    0.6464690000000000 Te
   0.6902410000000000    0.4166580000000000    0.1704490000000000 S
   0.3097590000000000    0.5833420000000000    0.8295510000000000 S
   0.1902410000000000    0.5833420000000000    0.3295510000000000 S
   0.8097590000000000    0.4166580000000000    0.6704490000000000 S
   0.6481370000000000    0.9143450000000000    0.3867280000000000 Br
   0.3518630000000000    0.0856550000000000    0.6132720000000000 Br
   0.1481370000000000    0.0856550000000000    0.1132720000000000 Br
   0.8518630000000000    0.9143450000000000    0.8867280000000000 Br
