Ca4 Cu4 Si16 O40
1.0
7.376571 0.000000 0.000000
0.000000 7.376571 0.000000
0.000000 0.000000 15.434723
Ca Cu Si O
4 4 16 40
direct
0.500000 0.500000 0.500000 Ca
0.000000 0.000000 0.500000 Ca
0.000000 0.000000 0.000000 Ca
0.500000 0.500000 0.000000 Ca
0.500000 0.000000 0.583901 Cu
0.000000 0.500000 0.916099 Cu
0.000000 0.500000 0.416099 Cu
0.500000 0.000000 0.083901 Cu
0.176070 0.251892 0.647980 Si
0.823930 0.748108 0.647980 Si
0.251892 0.176070 0.852020 Si
0.751892 0.323930 0.647980 Si
0.248108 0.676070 0.647980 Si
0.323930 0.751892 0.852020 Si
0.676070 0.248108 0.852020 Si
0.748108 0.823930 0.852020 Si
0.323930 0.248108 0.352020 Si
0.676070 0.751892 0.352020 Si
0.248108 0.323930 0.147980 Si
0.748108 0.176070 0.352020 Si
0.251892 0.823930 0.352020 Si
0.176070 0.748108 0.147980 Si
0.823930 0.251892 0.147980 Si
0.751892 0.676070 0.147980 Si
0.254918 0.101163 0.582704 O
0.745082 0.898837 0.582704 O
0.101163 0.254918 0.917296 O
0.601163 0.245082 0.582704 O
0.398837 0.754918 0.582704 O
0.245082 0.601163 0.917296 O
0.754918 0.398837 0.917296 O
0.898837 0.745082 0.917296 O
0.245082 0.398837 0.417296 O
0.754918 0.601163 0.417296 O
0.398837 0.245082 0.082704 O
0.898837 0.254918 0.417296 O
0.101163 0.745082 0.417296 O
0.254918 0.898837 0.082704 O
0.745082 0.101163 0.082704 O
0.247245 0.043498 0.373045 O
0.601163 0.754918 0.082704 O
0.747245 0.543498 0.626955 O
0.456502 0.252755 0.873045 O
0.956502 0.247245 0.626955 O
0.043498 0.752755 0.626955 O
0.247245 0.956502 0.873045 O
0.752755 0.043498 0.873045 O
0.543498 0.747245 0.873045 O
0.710159 0.710159 0.250000 O
0.789841 0.210159 0.250000 O
0.210159 0.789841 0.250000 O
0.289841 0.289841 0.250000 O
0.789841 0.789841 0.750000 O
0.710159 0.289841 0.750000 O
0.289841 0.710159 0.750000 O
0.210159 0.210159 0.750000 O
0.956502 0.752755 0.126955 O
0.747245 0.456502 0.126955 O
0.252755 0.543498 0.126955 O
0.456502 0.747245 0.373045 O
0.543498 0.252755 0.373045 O
0.043498 0.247245 0.126955 O
0.752755 0.956502 0.373045 O
0.252755 0.456502 0.626955 O
