Ba1 Y1 Fe1 Cu1 O5
1.0
   3.8994650000000002    0.0000000000000000    0.0000000000000000
   0.0000000000000000    3.8994650000000002    0.0000000000000000
   0.0000000000000000    0.0000000000000000    7.9452030000000002
Ba Y Fe Cu O
1 1 1 1 5
direct
   0.5000000000000000    0.5000000000000000    0.9977590000000000 Ba
   0.5000000000000000    0.5000000000000000    0.4640000000000000 Y
   0.0000000000000000    0.0000000000000000    0.7053450000000000 Fe
   0.0000000000000000    0.0000000000000000    0.2551530000000000 Cu
   0.5000000000000000    0.0000000000000000    0.6361660000000000 O
   0.0000000000000000    0.5000000000000000    0.6361660000000000 O
   0.5000000000000000    0.0000000000000000    0.2765140000000000 O
   0.0000000000000000    0.5000000000000000    0.2765140000000000 O
   0.0000000000000000    0.0000000000000000    0.9403000000000000 O
