Co4 Cu2 O8
1.0
   5.0505459999999998   -0.0586210000000000    2.9680800000000001
   1.6190169999999999    4.8207880000000003    2.9845790000000001
   0.0105160000000000    0.0278300000000000    5.9182589999999999
Co Cu O
4 2 8
direct
   0.1249960000000000    0.6249960000000000    0.6250050000000000 Co
   0.6250060000000000    0.1249840000000000    0.6250070000000000 Co
   0.6250000000000000    0.6250070000000000    0.1250060000000000 Co
   0.6249950000000000    0.6249930000000000    0.6250030000000000 Co
   0.9991660000000000    0.0013600000000000    0.9977100000000000 Cu
   0.2508570000000000    0.2487130000000000    0.2522000000000000 Cu
   0.3983440000000000    0.3771400000000000    0.3866600000000000 O
   0.3889700000000000    0.3749230000000000    0.8449480000000000 O
   0.3859820000000000    0.8400640000000000    0.3973570000000000 O
   0.8476650000000000    0.3853710000000000    0.3894400000000000 O
   0.4023680000000000    0.8645960000000000    0.8605620000000000 O
   0.8639869999999999    0.4099590000000000    0.8526490000000000 O
   0.8610080000000000    0.8750500000000000    0.4050920000000000 O
   0.8516560000000000    0.8728450000000000    0.8633600000000000 O
