Mg2 Cu2 Ge4 O12
1.0
4.697547 5.040068 0.000000
-4.697547 5.040068 0.000000
0.000000 1.565170 5.069895
Mg Cu Ge O
2 2 4 12
direct
0.753653 0.246347 0.750000 Mg
0.246347 0.753653 0.250000 Mg
0.106947 0.893053 0.750000 Cu
0.893053 0.106947 0.250000 Cu
0.203470 0.387456 0.775763 Ge
0.612544 0.796530 0.724237 Ge
0.796530 0.612544 0.224237 Ge
0.387456 0.203470 0.275763 Ge
0.412230 0.295495 0.559234 O
0.704505 0.587770 0.940766 O
0.587770 0.704505 0.440766 O
0.295495 0.412230 0.059234 O
0.620512 0.134549 0.117378 O
0.865451 0.379488 0.382622 O
0.379488 0.865451 0.882622 O
0.134549 0.620512 0.617378 O
0.016422 0.204596 0.879974 O
0.795404 0.983578 0.620026 O
0.983578 0.795404 0.120026 O
0.204596 0.016422 0.379974 O
