Ca4 Y2 Cu2 O10
1.0
-2.647164 2.824618 8.080959
2.647164 -2.824618 8.080959
2.647164 2.824618 -8.080959
Ca Y Cu O
4 2 2 10
direct
0.433967 0.903649 0.530327 Ca
0.126678 0.596361 0.530327 Ca
0.566033 0.096361 0.469683 Ca
0.873322 0.403649 0.469683 Ca
0.793978 0.781538 0.075516 Y
0.206022 0.281538 0.987560 Y
0.500000 0.481652 0.981652 Cu
0.000000 0.981652 0.981652 Cu
0.826466 0.200871 0.527337 O
0.173534 0.700871 0.374406 O
0.446340 0.323623 0.025725 O
0.553660 0.579385 0.877283 O
0.797898 0.823623 0.877283 O
0.202102 0.079385 0.025725 O
0.773544 0.253971 0.992165 O
0.226456 0.218622 0.480428 O
0.238194 0.718622 0.992165 O
0.761806 0.753971 0.480428 O
