Zn12 Cu8 Ge12 O48
1.0
-6.014500 6.014500 6.014500
6.014500 -6.014500 6.014500
6.014500 6.014500 -6.014500
Zn Cu Ge O
12 8 12 48
direct
0.250000 0.875000 0.625000 Zn
0.750000 0.625000 0.875000 Zn
0.625000 0.875000 0.750000 Zn
0.875000 0.625000 0.250000 Zn
0.625000 0.250000 0.875000 Zn
0.875000 0.750000 0.625000 Zn
0.750000 0.125000 0.375000 Zn
0.250000 0.375000 0.125000 Zn
0.375000 0.125000 0.250000 Zn
0.125000 0.375000 0.750000 Zn
0.375000 0.750000 0.125000 Zn
0.125000 0.250000 0.375000 Zn
0.500000 0.500000 0.500000 Cu
0.500000 0.000000 0.500000 Cu
0.000000 0.500000 0.500000 Cu
0.500000 0.500000 0.000000 Cu
0.000000 0.000000 0.500000 Cu
0.000000 0.500000 0.000000 Cu
0.500000 0.000000 0.000000 Cu
0.000000 0.000000 0.000000 Cu
0.125000 0.750000 0.875000 Ge
0.875000 0.250000 0.125000 Ge
0.625000 0.375000 0.250000 Ge
0.750000 0.875000 0.125000 Ge
0.875000 0.125000 0.750000 Ge
0.250000 0.625000 0.375000 Ge
0.750000 0.375000 0.625000 Ge
0.250000 0.125000 0.875000 Ge
0.125000 0.875000 0.250000 Ge
0.375000 0.625000 0.750000 Ge
0.625000 0.750000 0.375000 Ge
0.375000 0.250000 0.625000 Ge
0.419823 0.819804 0.791311 O
0.871488 0.399981 0.080177 O
0.100019 0.971507 0.680196 O
0.528493 0.628512 0.708689 O
0.680196 0.080177 0.708689 O
0.628512 0.708689 0.528493 O
0.628512 0.419823 0.100019 O
0.708689 0.528493 0.628512 O
0.819804 0.528493 0.399981 O
0.971507 0.791311 0.871488 O
0.791311 0.871488 0.971507 O
0.708689 0.680196 0.080177 O
0.419823 0.100019 0.628512 O
0.399981 0.819804 0.528493 O
0.080177 0.708689 0.680196 O
0.100019 0.628512 0.419823 O
0.528493 0.399981 0.819804 O
0.080177 0.871488 0.399981 O
0.971507 0.680196 0.100019 O
0.180196 0.471507 0.600019 O
0.680196 0.100019 0.971507 O
0.791311 0.419823 0.819804 O
0.399981 0.080177 0.871488 O
0.871488 0.971507 0.791311 O
0.580177 0.180196 0.208689 O
0.128512 0.600019 0.919823 O
0.899981 0.028493 0.319804 O
0.471507 0.371488 0.291311 O
0.319804 0.919823 0.291311 O
0.371488 0.291311 0.471507 O
0.371488 0.580177 0.899981 O
0.291311 0.471507 0.371488 O
0.128512 0.028493 0.208689 O
0.600019 0.919823 0.128512 O
0.208689 0.580177 0.180196 O
0.180196 0.208689 0.580177 O
0.319804 0.899981 0.028493 O
0.028493 0.319804 0.899981 O
0.919823 0.128512 0.600019 O
0.471507 0.600019 0.180196 O
0.899981 0.371488 0.580177 O
0.919823 0.291311 0.319804 O
0.600019 0.180196 0.471507 O
0.580177 0.899981 0.371488 O
0.291311 0.319804 0.919823 O
0.208689 0.128512 0.028493 O
0.028493 0.208689 0.128512 O
0.819804 0.791311 0.419823 O
