Ca4 Nb4 Cu2 O16
1.0
   3.3675549999999999    9.5565610000000003    0.0000000000000000
  -3.3675549999999999    9.5565610000000003    0.0000000000000000
   0.0000000000000000    0.3052060000000000    5.4607089999999996
Ca Nb Cu O
4 4 2 16
direct
   0.4655590000000000    0.1206190000000000    0.7439810000000000 Ca
   0.8793810000000000    0.5344410000000001    0.7560190000000000 Ca
   0.5344410000000001    0.8793810000000000    0.2560190000000000 Ca
   0.1206190000000000    0.4655590000000000    0.2439810000000000 Ca
   0.2612180000000000    0.9741140000000000    0.7650709999999999 Nb
   0.0258860000000000    0.7387820000000000    0.7349290000000001 Nb
   0.7387820000000000    0.0258860000000000    0.2349290000000000 Nb
   0.9741140000000000    0.2612180000000000    0.2650710000000000 Nb
   0.7356720000000000    0.2643280000000000    0.7500000000000000 Cu
   0.2643280000000000    0.7356720000000000    0.2500000000000000 Cu
   0.1982610000000000    0.9537300000000000    0.4339290000000000 O
   0.0462700000000000    0.8017390000000000    0.0660710000000000 O
   0.8017390000000000    0.0462700000000000    0.5660710000000000 O
   0.9537300000000000    0.1982610000000000    0.9339290000000000 O
   0.3599480000000000    0.7592860000000000    0.9690250000000000 O
   0.2407140000000000    0.6400520000000000    0.5309750000000000 O
   0.6400520000000000    0.2407140000000000    0.0309750000000000 O
   0.7592860000000000    0.3599480000000000    0.4690250000000000 O
   0.2481970000000000    0.1279530000000000    0.0115160000000000 O
   0.8720470000000000    0.7518030000000000    0.4884840000000000 O
   0.8383429999999999    0.5331090000000001    0.1708680000000000 O
   0.4668910000000000    0.1616570000000000    0.3291320000000000 O
   0.1616570000000000    0.4668910000000000    0.8291320000000000 O
   0.5331090000000001    0.8383429999999999    0.6708680000000000 O
   0.1279530000000000    0.2481970000000000    0.5115160000000000 O
   0.7518030000000000    0.8720470000000000    0.9884840000000000 O
