Ta4 Zn4 Cu2 O16
1.0
2.999989 9.690851 0.000000
-2.999989 9.690851 0.000000
0.000000 0.218441 5.225937
Ta Zn Cu O
4 4 2 16
direct
0.043788 0.725961 0.230579 Ta
0.274039 0.956212 0.269421 Ta
0.956212 0.274039 0.769421 Ta
0.725961 0.043788 0.730579 Ta
0.875649 0.561273 0.265052 Zn
0.438727 0.124351 0.234948 Zn
0.124351 0.438727 0.734948 Zn
0.561273 0.875649 0.765052 Zn
0.643985 0.356015 0.250000 Cu
0.356015 0.643985 0.750000 Cu
0.049390 0.808302 0.560600 O
0.191698 0.950610 0.939400 O
0.950610 0.191698 0.439400 O
0.808302 0.049390 0.060600 O
0.310834 0.576327 0.065826 O
0.423673 0.689166 0.434174 O
0.689166 0.423673 0.934174 O
0.576327 0.310834 0.565826 O
0.924171 0.717630 0.934525 O
0.282370 0.075829 0.565475 O
0.454577 0.159958 0.859808 O
0.840042 0.545423 0.640192 O
0.545423 0.840042 0.140192 O
0.159958 0.454577 0.359808 O
0.717630 0.924171 0.434525 O
0.075829 0.282370 0.065475 O
