Co4 Cu2 O8
1.0
  -4.1327340000000001    4.1105460000000003   -0.0080900000000000
   4.1327340000000001   -0.0080900000000000    4.1105460000000003
   4.1327340000000001    4.1105460000000003   -0.0080900000000000
Co Cu O
4 2 8
direct
   0.0044990000000000    0.0000000000000000    0.9955010000000000 Co
   0.6250000000000000    0.2500000000000000    0.6250000000000000 Co
   0.2455010000000000    0.5000000000000000    0.2544990000000000 Co
   0.1250000000000000    0.7500000000000000    0.6250000000000000 Co
   0.6250000000000000    0.2500000000000000    0.1250000000000000 Cu
   0.6250000000000000    0.7500000000000000    0.6250000000000000 Cu
   0.8394740000000001    0.2326300000000000    0.3931570000000000 O
   0.3796530000000000    0.2210710000000000    0.3992760000000000 O
   0.8703470000000000    0.2789290000000000    0.8507240000000000 O
   0.8703470000000000    0.7210710000000000    0.4085820000000000 O
   0.8757880000000000    0.7326300000000000    0.8568430000000000 O
   0.4105260000000000    0.2673700000000000    0.8568430000000000 O
   0.3742120000000000    0.7673700000000000    0.3931570000000000 O
   0.3796530000000000    0.7789290000000000    0.8414180000000000 O
