Ga4 Cu2 O8
1.0
  -2.8610090000000001    2.9367800000000002    4.4321789999999996
   2.8610090000000001   -2.9367800000000002    4.4321789999999996
   2.8610090000000001    2.9367800000000002   -4.4321789999999996
Ga Cu O
4 2 8
direct
   0.6108950000000000    0.8608950000000000    0.7500000000000000 Ga
   0.3891050000000000    0.1391050000000000    0.2500000000000000 Ga
   0.0000000000000000    0.5000000000000000    0.5000000000000000 Ga
   0.5000000000000000    0.5000000000000000    0.0000000000000000 Ga
   0.0000000000000000    0.5000000000000000    0.0000000000000000 Cu
   0.0000000000000000    0.0000000000000000    0.5000000000000000 Cu
   0.2616940000000000    0.7469500000000000    0.9852560000000000 O
   0.7794830000000000    0.2664410000000000    0.5130420000000000 O
   0.2616940000000000    0.2764370000000000    0.5147440000000000 O
   0.2533980000000000    0.2664410000000000    0.9869580000000000 O
   0.7466020000000000    0.7335590000000000    0.0130420000000000 O
   0.7383060000000000    0.7235630000000000    0.4852560000000000 O
   0.2205170000000000    0.7335590000000000    0.4869580000000000 O
   0.7383060000000000    0.2530500000000000    0.0147440000000000 O
