Cu1 Pb2 O2 F2
1.0
-2.019047 2.019047 7.327758
2.019047 -2.019047 7.327758
2.019047 2.019047 -7.327758
Cu Pb O F
1 2 2 2
direct
0.000000 0.000000 0.000000 Cu
0.332221 0.332221 0.000000 Pb
0.667779 0.667779 0.000000 Pb
0.750000 0.250000 0.500000 O
0.250000 0.750000 0.500000 O
0.500000 0.000000 0.500000 F
0.000000 0.500000 0.500000 F
