Ce1 In1 Cu1
1.0
   0.0000000000000000    0.0000000000000000   -3.5118640000000001
  -2.3813369999999998   -4.1280419999999998    0.0000000000000000
  -2.3837760000000001    4.1294690000000003    0.0000000000000000
Ce In Cu
1 1 1
direct
   0.0000000000000000    0.9995660000000000    0.9998310000000000 Ce
   0.5000000000000000    0.6666390000000000    0.3333330000000000 In
   0.5000000000000000    0.3336950000000000    0.6668360000000000 Cu
