Zn4 Cu4 Ni4 P8 O36
1.0
   6.2130150000000004   -0.0004580000000000    0.0003940000000000
  -0.0005270000000000    7.1526719999999999   -0.0015700000000000
   0.0008850000000000   -0.0025730000000000   14.2376009999999997
Zn Cu Ni P O
4 4 4 8 36
direct
   0.7500150000000000    0.8835610000000000    0.7779270000000000 Zn
   0.7499930000000000    0.6159980000000000    0.2768150000000000 Zn
   0.2499590000000000    0.1165520000000000    0.2220820000000000 Zn
   0.2500040000000000    0.3831540000000000    0.7228890000000000 Zn
   0.7500860000000000    0.3548230000000000    0.8789890000000000 Cu
   0.2499460000000000    0.6455590000000000    0.1211640000000000 Cu
   0.2501610000000000    0.8554450000000000    0.6216850000000000 Cu
   0.7498280000000001    0.1447700000000000    0.3783660000000000 Cu
   0.5000030000000000    0.0002090000000000    0.0002800000000000 Ni
   0.4999940000000000    0.4999370000000000    0.5000760000000000 Ni
   0.0000560000000000    0.4999390000000000    0.5001050000000000 Ni
   0.9999610000000000    0.0001690000000000    0.0002920000000000 Ni
   0.2500470000000000    0.3637900000000000    0.9306080000000000 P
   0.7499730000000000    0.6363010000000000    0.0695900000000000 P
   0.7500559999999999    0.8643490000000000    0.5697010000000000 P
   0.2499370000000000    0.1356360000000000    0.4302030000000000 P
   0.7500270000000000    0.3859040000000000    0.6980860000000000 P
   0.2499570000000000    0.6140930000000000    0.3018980000000000 P
   0.2499710000000000    0.8851830000000001    0.8022010000000001 P
   0.7499990000000000    0.1151120000000000    0.1978690000000000 P
   0.0379010000000000    0.6078200000000000    0.3599050000000000 O
   0.5377380000000000    0.3918250000000000    0.6399680000000000 O
   0.9621990000000000    0.1081680000000000    0.1400460000000000 O
   0.4621130000000000    0.8920760000000000    0.8600340000000000 O
   0.9623130000000000    0.3918890000000000    0.6399359999999999 O
   0.4620390000000000    0.6078600000000000    0.3598610000000000 O
   0.0378230000000000    0.8919990000000000    0.8600490000000000 O
   0.5378039999999999    0.1081430000000000    0.1400610000000000 O
   0.2500840000000000    0.3280750000000000    0.4803580000000000 O
   0.7499490000000000    0.6716490000000001    0.5196760000000000 O
   0.7499670000000001    0.8285700000000000    0.0199460000000000 O
   0.2499420000000000    0.1716370000000000    0.9804530000000000 O
   0.7500530000000000    0.1341090000000000    0.9483900000000000 O
   0.2499630000000000    0.8642850000000000    0.0511810000000000 O
   0.2502760000000000    0.6374050000000000    0.5490560000000000 O
   0.7497580000000000    0.3623860000000000    0.4510110000000000 O
   0.7500950000000000    0.2040420000000000    0.7593900000000000 O
   0.2499160000000000    0.7957419999999999    0.2401040000000000 O
   0.2500080000000000    0.7027930000000000    0.7407920000000000 O
   0.7499749999999999    0.2975630000000000    0.2592330000000000 O
   0.4356330000000000    0.1282000000000000    0.3565780000000000 O
   0.9359990000000000    0.8716790000000000    0.6431930000000000 O
   0.5643120000000000    0.6285080000000000    0.1430950000000000 O
   0.0643680000000000    0.3717770000000000    0.8570759999999999 O
   0.5642690000000000    0.8718340000000000    0.6433000000000000 O
   0.0640950000000000    0.1283660000000000    0.3566780000000000 O
   0.4358590000000000    0.3716220000000000    0.8571330000000000 O
   0.9355310000000000    0.6285440000000000    0.1431400000000000 O
   0.7500550000000000    0.9543120000000000    0.2734800000000000 O
   0.2499150000000000    0.0461710000000000    0.7266130000000000 O
   0.2499440000000000    0.4536460000000000    0.2259060000000000 O
   0.7500050000000000    0.5471390000000000    0.7734510000000000 O
   0.7499360000000000    0.0213910000000000    0.5002470000000000 O
   0.2499980000000000    0.9781870000000000    0.4995490000000000 O
   0.2500600000000000    0.5218510000000000    0.0000220000000000 O
   0.7501310000000000    0.4782530000000000    0.0002620000000000 O
