Zn6 Cu12 O24
1.0
2.972340 5.125923 0.000000
-2.972340 5.125923 0.000000
0.000000 0.077139 14.509530
Zn Cu O
6 12 24
direct
0.660548 0.660548 0.041243 Zn
0.333327 0.333327 0.332844 Zn
0.166348 0.166348 0.167736 Zn
0.666865 0.666865 0.667017 Zn
0.500351 0.500351 0.499980 Zn
0.834012 0.834012 0.832263 Zn
0.166052 0.667604 0.166972 Cu
0.996592 0.996592 0.377811 Cu
0.000100 0.000100 0.999952 Cu
0.667604 0.166052 0.166972 Cu
0.500086 0.000482 0.499933 Cu
0.330266 0.330266 0.708265 Cu
0.000482 0.500086 0.499933 Cu
0.833984 0.332748 0.832883 Cu
0.670193 0.670193 0.291164 Cu
0.332748 0.833984 0.832883 Cu
0.003822 0.003822 0.622894 Cu
0.334988 0.334988 0.958011 Cu
0.295614 0.839928 0.085435 O
0.992814 0.992814 0.245379 O
0.839928 0.295614 0.085435 O
0.843546 0.843546 0.086965 O
0.642824 0.165820 0.422965 O
0.497299 0.497299 0.242284 O
0.326961 0.326961 0.577095 O
0.503631 0.022018 0.243137 O
0.165820 0.642824 0.422965 O
0.342132 0.342132 0.091598 O
0.172228 0.172228 0.423070 O
0.022018 0.503631 0.243137 O
0.981404 0.496202 0.755624 O
0.828202 0.828202 0.577170 O
0.835418 0.357680 0.576985 O
0.496202 0.981404 0.755624 O
0.658677 0.658677 0.903812 O
0.673307 0.673307 0.422614 O
0.502209 0.502209 0.754473 O
0.357680 0.835418 0.576985 O
0.160222 0.160222 0.916795 O
0.164254 0.700993 0.916745 O
0.009395 0.009395 0.758023 O
0.700993 0.164254 0.916745 O
