Ca4 Cu8 Sb8 O32
1.0
9.121615 0.000000 0.000000
0.000000 6.690584 0.000000
0.000000 0.504927 12.713036
Ca Cu Sb O
4 8 8 32
direct
0.165811 0.124868 0.034898 Ca
0.834189 0.875132 0.965102 Ca
0.665811 0.875132 0.465102 Ca
0.334189 0.124868 0.534898 Ca
0.180831 0.757238 0.848902 Cu
0.055700 0.392268 0.629012 Cu
0.944300 0.607732 0.370988 Cu
0.819169 0.242762 0.151098 Cu
0.319169 0.757238 0.348902 Cu
0.444300 0.392268 0.129012 Cu
0.680831 0.242762 0.651098 Cu
0.555700 0.607732 0.870988 Cu
0.458828 0.091256 0.838969 Sb
0.041172 0.091256 0.338969 Sb
0.085350 0.599038 0.142374 Sb
0.958828 0.908744 0.661031 Sb
0.914650 0.400962 0.857626 Sb
0.585350 0.400962 0.357626 Sb
0.414650 0.599038 0.642374 Sb
0.541172 0.908744 0.161031 Sb
0.238044 0.016520 0.376759 O
0.004607 0.666049 0.594152 O
0.573893 0.194119 0.463888 O
0.073893 0.805881 0.036112 O
0.261956 0.016520 0.876759 O
0.761956 0.983480 0.623241 O
0.097271 0.105954 0.609948 O
0.885711 0.511163 0.144524 O
0.614289 0.511163 0.644524 O
0.879388 0.312266 0.714568 O
0.379388 0.687734 0.785432 O
0.114289 0.488837 0.855476 O
0.902729 0.894046 0.390052 O
0.519755 0.863790 0.309819 O
0.263595 0.428314 0.595863 O
0.236405 0.428314 0.095863 O
0.019755 0.136210 0.190181 O
0.385711 0.488837 0.355476 O
0.480245 0.136210 0.690181 O
0.426107 0.805881 0.536112 O
0.495393 0.666049 0.094152 O
0.120612 0.687734 0.285432 O
0.738044 0.983480 0.123241 O
0.402729 0.105954 0.109948 O
0.926107 0.194119 0.963888 O
0.763595 0.571686 0.904137 O
0.995393 0.333951 0.405848 O
0.504607 0.333951 0.905848 O
0.597271 0.894046 0.890052 O
0.736405 0.571686 0.404137 O
0.620612 0.312266 0.214568 O
0.980245 0.863790 0.809819 O
