Tb2 Cu1 Ge6
1.0
  -4.0694540000000003    0.0000000000000000    0.0000000000000000
   0.0000000000000000    0.0000000000000000   -4.0761130000000003
   2.0347270000000002  -10.6919970000000006    0.0000000000000000
Tb Cu Ge
2 1 6
direct
   0.9963570000000000    0.0000000000000000    0.9927140000000000 Tb
   0.3296580000000000    0.0000000000000000    0.6593160000000000 Tb
   0.7757120000000000    0.5000000000000000    0.5514240000000000 Cu
   0.7152290000000000    0.0000000000000000    0.4304580000000000 Ge
   0.5996540000000000    0.0000000000000000    0.1993080000000000 Ge
   0.4538310000000000    0.5000000000000000    0.9076620000000000 Ge
   0.8843990000000000    0.5000000000000000    0.7687980000000000 Ge
   0.0989610000000000    0.5000000000000000    0.1979220000000000 Ge
   0.2151990000000000    0.5000000000000000    0.4303980000000000 Ge
