Zn4 Cu4 O8
1.0
2.945296 0.000000 0.000000
-0.508569 8.082537 0.000000
-1.308341 -0.213924 8.076457
Zn Cu O
4 4 8
direct
0.658454 0.925703 0.238696 Zn
0.384642 0.094378 0.787883 Zn
0.179686 0.296244 0.125353 Zn
0.833897 0.726910 0.902205 Zn
0.205787 0.815933 0.576855 Cu
0.230944 0.602392 0.276186 Cu
0.755285 0.419001 0.758985 Cu
0.822783 0.204787 0.448708 Cu
0.400839 0.262854 0.596607 O
0.279409 0.583850 0.801579 O
0.737562 0.432918 0.230715 O
0.629633 0.756443 0.427941 O
0.790441 0.905449 0.728016 O
0.076323 0.798902 0.124334 O
0.238498 0.113976 0.299694 O
0.968208 0.220928 0.901859 O
