Li14 Cu2 Si4 O16
1.0
3.173682 7.752283 0.000000
-3.173682 7.752283 0.000000
0.000000 0.089657 7.811067
Li Cu Si O
14 2 4 16
direct
0.341898 0.827398 0.625961 Li
0.827398 0.341898 0.625961 Li
0.072833 0.072833 0.295784 Li
0.648104 0.648104 0.853315 Li
0.938767 0.430269 0.158033 Li
0.430269 0.938767 0.158033 Li
0.061233 0.569731 0.841967 Li
0.569731 0.061233 0.841967 Li
0.351896 0.351896 0.146685 Li
0.927167 0.927167 0.704216 Li
0.658102 0.172602 0.374039 Li
0.172602 0.658102 0.374039 Li
0.000000 0.000000 0.000000 Li
0.500000 0.500000 0.000000 Li
0.267547 0.267547 0.598492 Cu
0.732453 0.732453 0.401508 Cu
0.572652 0.572652 0.288009 Si
0.144850 0.144850 0.850642 Si
0.855150 0.855150 0.149358 Si
0.427348 0.427348 0.711991 Si
0.532242 0.532242 0.737201 O
0.048393 0.048393 0.762976 O
0.395114 0.823914 0.384848 O
0.823914 0.395114 0.384848 O
0.616493 0.616493 0.092356 O
0.132421 0.132421 0.060009 O
0.409582 0.981451 0.779738 O
0.981451 0.409582 0.779738 O
0.018549 0.590418 0.220262 O
0.590418 0.018549 0.220262 O
0.867579 0.867579 0.939991 O
0.383507 0.383507 0.907644 O
0.604886 0.176086 0.615152 O
0.176086 0.604886 0.615152 O
0.951607 0.951607 0.237024 O
0.467758 0.467758 0.262799 O
