Ca4 Cu2 Ir2 O12
1.0
5.634207 0.000000 0.000000
0.000000 5.420897 0.000000
0.000000 5.400954 7.694530
Ca Cu Ir O
4 2 2 12
direct
0.560467 0.735177 0.750020 Ca
0.060467 0.264823 0.749980 Ca
0.939533 0.735177 0.250020 Ca
0.439533 0.264823 0.249980 Ca
0.000000 0.000000 0.500000 Cu
0.500000 0.000000 0.000000 Cu
0.000000 0.500000 0.000000 Ir
0.500000 0.500000 0.500000 Ir
0.034099 0.157171 0.242718 O
0.308328 0.741859 0.550719 O
0.290462 0.366792 0.946966 O
0.790462 0.633208 0.553034 O
0.808328 0.258141 0.949281 O
0.534099 0.842829 0.257282 O
0.465901 0.157171 0.742718 O
0.191672 0.741859 0.050719 O
0.209538 0.366792 0.446966 O
0.691672 0.258141 0.449281 O
0.709538 0.633208 0.053034 O
0.965901 0.842829 0.757282 O
