Tl2 Cu3 Se6 O18
1.0
4.801269 -0.052579 0.700190
1.361795 8.972212 3.776206
-0.077214 -0.070311 10.211079
Tl Cu Se O
2 3 6 18
direct
0.446857 0.315808 0.677905 Tl
0.553143 0.684192 0.322095 Tl
0.206035 0.529935 0.086523 Cu
0.793965 0.470065 0.913477 Cu
0.000000 0.000000 0.000000 Cu
0.624733 0.784313 0.962095 Se
0.912776 0.924439 0.349709 Se
0.087224 0.075561 0.650291 Se
0.311096 0.642940 0.678922 Se
0.688904 0.357060 0.321078 Se
0.375267 0.215687 0.037905 Se
0.900580 0.641176 0.957629 O
0.574247 0.577572 0.576796 O
0.261901 0.145810 0.923388 O
0.978162 0.036106 0.174491 O
0.099420 0.358824 0.042371 O
0.425753 0.422428 0.423204 O
0.870384 0.509589 0.269081 O
0.374797 0.696245 0.094661 O
0.738099 0.854190 0.076612 O
0.483702 0.619192 0.824920 O
0.432292 0.106278 0.637387 O
0.516298 0.380808 0.175080 O
0.928568 0.253199 0.635452 O
0.567708 0.893722 0.362613 O
0.071432 0.746801 0.364548 O
0.021838 0.963894 0.825509 O
0.129616 0.490411 0.730919 O
0.625203 0.303755 0.905339 O
