Ba1 Cu1 Sb1 O5
1.0
3.767985 0.000000 0.000000
0.000000 3.767985 0.000000
0.000000 0.000000 9.393310
Ba Cu Sb O
1 1 1 5
direct
0.000000 0.000000 0.031972 Ba
0.500000 0.500000 0.277507 Cu
0.500000 0.500000 0.711862 Sb
0.000000 0.500000 0.655827 O
0.500000 0.000000 0.655827 O
0.000000 0.500000 0.236361 O
0.500000 0.000000 0.236361 O
0.500000 0.500000 0.917584 O
