Nd1 Cu1 Ni4
1.0
   2.4353263900000002   -4.3151866900000000    0.0000000000000000
   2.4353334699999998    4.3151912000000001    0.0000000000000000
   0.0000000000000000    0.0000000000000000    3.9546534900000001
Nd Cu Ni
1 1 4
direct
   0.5000000000000000    0.5000000000000000    0.0000000000000000 Nd
  -0.0000000000000000    0.0000000000000000    0.5000000000000000 Cu
   0.1761685400000000    0.8238705900000000   -0.0000000000000000 Ni
   0.8238314600000000    0.1761294100000000    0.0000000000000000 Ni
  -0.0000000000000000    0.5000000000000000    0.5000000000000000 Ni
   0.5000000000000000    0.0000000000000000    0.5000000000000000 Ni
