Zn4 Cu8 P8 O36
1.0
6.126796 0.000000 0.000000
0.000000 7.086261 0.000000
0.000000 0.000000 14.760077
Zn Cu P O
4 8 8 36
direct
0.250000 0.898746 0.221471 Zn
0.250000 0.601254 0.721471 Zn
0.750000 0.398746 0.278529 Zn
0.750000 0.101254 0.778529 Zn
0.250000 0.354968 0.119363 Cu
0.750000 0.645032 0.880637 Cu
0.750000 0.854968 0.380637 Cu
0.250000 0.145032 0.619363 Cu
0.500000 0.000000 0.000000 Cu
0.500000 0.500000 0.500000 Cu
0.000000 0.500000 0.500000 Cu
0.000000 0.000000 0.000000 Cu
0.750000 0.367697 0.070293 P
0.250000 0.632303 0.929707 P
0.250000 0.867697 0.429707 P
0.750000 0.132303 0.570293 P
0.250000 0.380786 0.296978 P
0.250000 0.119214 0.796978 P
0.750000 0.880786 0.203022 P
0.750000 0.619214 0.703022 P
0.963514 0.614328 0.646439 O
0.463514 0.385672 0.353561 O
0.036486 0.114328 0.853561 O
0.536486 0.885672 0.146439 O
0.036486 0.385672 0.353561 O
0.536486 0.614328 0.646439 O
0.963514 0.885672 0.146439 O
0.463514 0.114328 0.853561 O
0.750000 0.328080 0.521128 O
0.250000 0.671920 0.478872 O
0.250000 0.828080 0.978872 O
0.750000 0.171920 0.021128 O
0.250000 0.127709 0.047132 O
0.750000 0.872291 0.952868 O
0.750000 0.627709 0.452868 O
0.250000 0.372291 0.547132 O
0.250000 0.197307 0.236636 O
0.750000 0.802693 0.763364 O
0.750000 0.697307 0.263364 O
0.250000 0.302693 0.736636 O
0.561097 0.127728 0.640295 O
0.061097 0.872272 0.359705 O
0.438903 0.627728 0.859705 O
0.938903 0.372272 0.140295 O
0.438903 0.872272 0.359705 O
0.938903 0.127728 0.640295 O
0.561097 0.372272 0.140295 O
0.061097 0.627728 0.859705 O
0.250000 0.473887 0.997430 O
0.750000 0.045839 0.274206 O
0.750000 0.454161 0.774206 O
0.250000 0.545839 0.225794 O
0.250000 0.026113 0.497430 O
0.750000 0.973887 0.502570 O
0.750000 0.526113 0.002570 O
0.250000 0.954161 0.725794 O
