Ba4 Zn2 Cu2 Sb4 F28
1.0
   2.6766109999999999    7.2266769999999996    0.0000000000000000
  -2.6766109999999999    7.2266769999999996    0.0000000000000000
   0.0000000000000000    0.0385260000000000   16.2720610000000008
Ba Zn Cu Sb F
4 2 2 4 28
direct
   0.7365850000000000    0.9097510000000000    0.1283270000000000 Ba
   0.9097510000000000    0.7365850000000000    0.6283270000000000 Ba
   0.2634150000000000    0.0902490000000000    0.8716730000000000 Ba
   0.0902490000000000    0.2634150000000000    0.3716730000000000 Ba
   0.4498140000000000    0.5501860000000000    0.2500000000000000 Zn
   0.5501860000000000    0.4498140000000000    0.7500000000000000 Zn
   0.5000000000000000    0.5000000000000000    0.5000000000000000 Cu
   0.5000000000000000    0.5000000000000000    0.0000000000000000 Cu
   0.8459780000000000    0.9292190000000000    0.3781000000000000 Sb
   0.1540220000000000    0.0707810000000000    0.6219000000000000 Sb
   0.9292190000000000    0.8459780000000000    0.8781000000000000 Sb
   0.0707810000000000    0.1540220000000000    0.1219000000000000 Sb
   0.8518760000000000    0.1789100000000000    0.8299960000000000 F
   0.5872290000000000    0.1125980000000000    0.9518320000000000 F
   0.4127710000000000    0.8874020000000000    0.0481680000000000 F
   0.1235100000000000    0.3824000000000000    0.1034650000000000 F
   0.5927840000000000    0.3467100000000000    0.1092520000000000 F
   0.6532900000000000    0.4072160000000000    0.3907480000000000 F
   0.1125980000000000    0.5872290000000000    0.4518320000000000 F
   0.8210900000000000    0.1481240000000000    0.6700040000000000 F
   0.9845820000000000    0.6613520000000001    0.2856320000000000 F
   0.8764900000000000    0.6176000000000000    0.8965350000000000 F
   0.5533700000000000    0.2260580000000000    0.2653050000000000 F
   0.6176000000000000    0.8764900000000000    0.3965350000000000 F
   0.2260580000000000    0.5533700000000000    0.7653050000000000 F
   0.4466300000000000    0.7739420000000000    0.7346950000000000 F
   0.3467100000000000    0.5927840000000000    0.6092520000000000 F
   0.0154180000000000    0.3386480000000000    0.7143680000000000 F
   0.2910840000000000    0.8687940000000000    0.4895780000000000 F
   0.1481240000000000    0.8210900000000000    0.1700040000000000 F
   0.7089160000000000    0.1312060000000000    0.5104220000000000 F
   0.8687940000000000    0.2910840000000000    0.9895780000000000 F
   0.8874020000000000    0.4127710000000000    0.5481680000000000 F
   0.7739420000000000    0.4466300000000000    0.2346950000000000 F
   0.6613520000000001    0.9845820000000000    0.7856320000000000 F
   0.1312060000000000    0.7089160000000000    0.0104220000000000 F
   0.4072160000000000    0.6532900000000000    0.8907480000000000 F
   0.1789100000000000    0.8518760000000000    0.3299960000000000 F
   0.3386480000000000    0.0154180000000000    0.2143680000000000 F
   0.3824000000000000    0.1235100000000000    0.6034650000000000 F
