Cu4 Te16 H48 C16 N4
1.0
  11.3434810000000006    0.0000000000000000    0.0000000000000000
   0.0000000000000000    9.7419940000000000    0.0000000000000000
   0.0000000000000000    2.7360069999999999   11.6937029999999993
Cu Te H C N
4 16 48 16 4
direct
   0.9667350000000000    0.5300670000000000    0.8893580000000000 Cu
   0.5332650000000000    0.5300670000000000    0.3893580000000000 Cu
   0.4667350000000000    0.4699330000000000    0.6106420000000000 Cu
   0.0332650000000000    0.4699330000000000    0.1106420000000000 Cu
   0.9325590000000000    0.3679870000000000    0.3059050000000000 Te
   0.9517099999999999    0.7174500000000000    0.0162580000000000 Te
   0.0674410000000000    0.6320130000000000    0.6940950000000000 Te
   0.4517100000000000    0.2825500000000000    0.4837420000000000 Te
   0.5674410000000000    0.3679870000000000    0.8059050000000000 Te
   0.7152880000000000    0.6695340000000000    0.0898870000000000 Te
   0.0482900000000000    0.2825500000000000    0.9837420000000000 Te
   0.7610200000000000    0.5716240000000000    0.3322520000000000 Te
   0.2847120000000000    0.3304660000000000    0.9101129999999999 Te
   0.7389800000000000    0.5716240000000000    0.8322520000000000 Te
   0.7847120000000000    0.6695340000000000    0.5898870000000001 Te
   0.2389800000000000    0.4283760000000000    0.6677480000000000 Te
   0.5482900000000001    0.7174500000000000    0.5162580000000000 Te
   0.2152880000000000    0.3304660000000000    0.4101130000000000 Te
   0.4325590000000000    0.6320130000000000    0.1940950000000000 Te
   0.2610200000000000    0.4283760000000000    0.1677480000000000 Te
   0.8114000000000000    0.9468240000000000    0.7962380000000000 H
   0.0395620000000000    0.7076640000000000    0.2734230000000000 H
   0.7509070000000000    0.0054380000000000    0.5963010000000000 H
   0.5439250000000000    0.9271220000000000    0.7981890000000000 H
   0.3123640000000000    0.8331769999999999    0.3798140000000000 H
   0.2075610000000000    0.8257340000000000    0.4931770000000000 H
   0.7490930000000000    0.0054380000000000    0.0963010000000000 H
   0.4560070000000000    0.0501700000000000    0.8538480000000001 H
   0.4560750000000000    0.0728780000000000    0.2018110000000000 H
   0.5395620000000000    0.2923360000000000    0.2265770000000000 H
   0.4995960000000000    0.8832690000000000    0.9452640000000000 H
   0.9560070000000001    0.9498300000000000    0.6461519999999999 H
   0.1886000000000000    0.0531760000000000    0.2037620000000000 H
   0.9012440000000000    0.0677580000000000    0.8515380000000000 H
   0.4012440000000000    0.9322420000000000    0.6484620000000000 H
   0.1876360000000000    0.8331769999999999    0.8798140000000000 H
   0.1916570000000000    0.6683360000000000    0.3092050000000000 H
   0.9604380000000000    0.2923360000000000    0.7265770000000000 H
   0.2509070000000000    0.9945619999999999    0.9036990000000000 H
   0.7075610000000000    0.1742660000000000    0.0068230000000000 H
   0.8123640000000000    0.1668230000000000    0.1201860000000000 H
   0.9144860000000000    0.3330480000000000    0.5789430000000000 H
   0.0855140000000000    0.6669520000000000    0.4210570000000000 H
   0.2499260000000000    0.8879420000000000    0.6855170000000000 H
   0.2924390000000000    0.8257340000000000    0.9931770000000000 H
   0.4604380000000000    0.7076640000000000    0.7734230000000000 H
   0.7924390000000000    0.1742660000000000    0.5068230000000000 H
   0.9995960000000000    0.1167310000000000    0.5547360000000000 H
   0.3083430000000000    0.6683360000000000    0.8092050000000000 H
   0.5987560000000000    0.0677580000000000    0.3515380000000000 H
   0.3114000000000000    0.0531760000000000    0.7037620000000000 H
   0.0439930000000000    0.0501700000000000    0.3538480000000000 H
   0.5004040000000000    0.1167310000000000    0.0547360000000000 H
   0.7499260000000000    0.1120580000000000    0.8144830000000000 H
   0.5855140000000000    0.3330480000000000    0.0789430000000000 H
   0.7500740000000000    0.1120580000000000    0.3144830000000000 H
   0.2500740000000000    0.8879420000000000    0.1855170000000000 H
   0.6916570000000000    0.3316640000000000    0.1907950000000000 H
   0.0987560000000000    0.9322420000000000    0.1484620000000000 H
   0.8083430000000000    0.3316640000000000    0.6907950000000000 H
   0.0004040000000000    0.8832690000000000    0.4452640000000000 H
   0.9560750000000000    0.9271220000000000    0.2981890000000000 H
   0.6876360000000000    0.1668230000000000    0.6201860000000000 H
   0.4144860000000000    0.6669520000000000    0.9210570000000000 H
   0.0439250000000000    0.0728780000000000    0.7018110000000000 H
   0.5439929999999999    0.9498300000000000    0.1461520000000000 H
   0.6886000000000000    0.9468240000000000    0.2962380000000000 H
   0.2490930000000000    0.9945619999999999    0.4036990000000000 H
   0.4740350000000000    0.9383160000000000    0.8584650000000000 C
   0.2663370000000000    0.8824190000000000    0.9068900000000000 C
   0.6709630000000000    0.0583850000000000    0.2930340000000000 C
   0.1109020000000000    0.7165940000000000    0.3329570000000000 C
   0.6109019999999999    0.2834060000000000    0.1670430000000000 C
   0.0259650000000000    0.9383160000000000    0.3584650000000000 C
   0.7663370000000000    0.1175810000000000    0.5931100000000000 C
   0.8290370000000000    0.0583850000000000    0.7930340000000000 C
   0.2336630000000000    0.8824190000000000    0.4068900000000000 C
   0.7336630000000000    0.1175810000000000    0.0931100000000000 C
   0.9740350000000000    0.0616840000000000    0.6415350000000000 C
   0.8890980000000001    0.2834060000000000    0.6670430000000001 C
   0.3290370000000000    0.9416150000000000    0.7069660000000000 C
   0.1709630000000000    0.9416150000000000    0.2069660000000000 C
   0.5259650000000000    0.0616840000000000    0.1415350000000000 C
   0.3890980000000000    0.7165940000000000    0.8329569999999999 C
   0.8648350000000000    0.1299010000000000    0.6737350000000000 N
   0.1351650000000000    0.8700990000000000    0.3262650000000000 N
   0.3648350000000000    0.8700990000000000    0.8262650000000000 N
   0.6351650000000000    0.1299010000000000    0.1737350000000000 N
