Ca6 Cu6 Sb12 O42
1.0
9.214923 0.000000 0.000000
0.000000 10.511641 0.000000
0.000000 0.755183 10.823955
Ca Cu Sb O
6 6 12 42
direct
0.448885 0.832784 0.574153 Ca
0.943660 0.500000 0.750000 Ca
0.448885 0.167216 0.925847 Ca
0.056340 0.500000 0.250000 Ca
0.551115 0.167216 0.425847 Ca
0.551115 0.832784 0.074153 Ca
0.929337 0.198516 0.409863 Cu
0.070663 0.801484 0.590137 Cu
0.432457 0.500000 0.250000 Cu
0.929337 0.801484 0.090137 Cu
0.567543 0.500000 0.750000 Cu
0.070663 0.198516 0.909863 Cu
0.202503 0.829685 0.293432 Sb
0.756612 0.842803 0.380896 Sb
0.243388 0.842803 0.880896 Sb
0.797497 0.829685 0.793432 Sb
0.294052 0.515619 0.961599 Sb
0.756612 0.157197 0.119104 Sb
0.705948 0.515619 0.461599 Sb
0.243388 0.157197 0.619104 Sb
0.294052 0.484381 0.538401 Sb
0.705948 0.484381 0.038401 Sb
0.797497 0.170315 0.706568 Sb
0.202503 0.170315 0.206568 Sb
0.773936 0.797535 0.968583 O
0.768754 0.164793 0.294436 O
0.876037 0.000000 0.750000 O
0.890763 0.487315 0.104523 O
0.391058 0.049711 0.566562 O
0.938047 0.728997 0.714157 O
0.358960 0.693356 0.942402 O
0.109237 0.487315 0.604523 O
0.723659 0.526532 0.865047 O
0.391058 0.950289 0.933438 O
0.723659 0.473468 0.634953 O
0.440191 0.423480 0.879886 O
0.940050 0.142512 0.042854 O
0.061953 0.728997 0.214157 O
0.641040 0.306644 0.057598 O
0.358960 0.306644 0.557598 O
0.938047 0.271003 0.785843 O
0.608942 0.950289 0.433438 O
0.226064 0.797535 0.468583 O
0.559809 0.576520 0.120114 O
0.387074 0.187192 0.273531 O
0.276341 0.473468 0.134953 O
0.059950 0.142512 0.542854 O
0.276341 0.526532 0.365047 O
0.890763 0.512685 0.395477 O
0.559809 0.423480 0.379886 O
0.109237 0.512685 0.895477 O
0.612926 0.187192 0.773531 O
0.612926 0.812808 0.726469 O
0.059950 0.857488 0.957146 O
0.061953 0.271003 0.285843 O
0.773936 0.202465 0.531417 O
0.123963 0.000000 0.250000 O
0.231246 0.164793 0.794436 O
0.608942 0.049711 0.066562 O
0.940050 0.857488 0.457146 O
0.226064 0.202465 0.031417 O
0.768754 0.835207 0.205564 O
0.440191 0.576520 0.620114 O
0.641040 0.693356 0.442402 O
0.231246 0.835207 0.705564 O
0.387074 0.812808 0.226469 O
