Rb2 Sm4 Cu2 Se8
1.0
   2.1030289999999998   -7.2765950000000004    0.0000000000000000
   2.1030289999999998    7.2765950000000004    0.0000000000000000
   0.0000000000000000    0.0000000000000000   14.6053890000000006
Rb Sm Cu Se
2 4 2 8
direct
   0.8909589999999999    0.1090410000000000    0.7500000000000000 Rb
   0.1090410000000000    0.8909589999999999    0.2500000000000000 Rb
   0.3655800000000000    0.6344200000000000    0.0632090000000000 Sm
   0.6344200000000000    0.3655800000000000    0.9367910000000000 Sm
   0.3655800000000000    0.6344200000000000    0.4367910000000000 Sm
   0.6344200000000000    0.3655800000000000    0.5632090000000000 Sm
   0.1622090000000000    0.8377910000000000    0.7500000000000000 Cu
   0.8377910000000000    0.1622090000000000    0.2500000000000000 Cu
   0.4293850000000000    0.5706150000000000    0.2500000000000000 Se
   0.5706150000000000    0.4293850000000000    0.7500000000000000 Se
   0.7377190000000000    0.2622810000000000    0.1119660000000000 Se
   0.2622810000000000    0.7377190000000000    0.8880340000000000 Se
   0.0000000000000000    0.0000000000000000    0.5000000000000000 Se
   0.0000000000000000    0.0000000000000000    0.0000000000000000 Se
   0.7377190000000000    0.2622810000000000    0.3880340000000000 Se
   0.2622810000000000    0.7377190000000000    0.6119660000000000 Se
