Fe9 Cu3 O16
1.0
5.857024 0.000000 0.000000
0.000000 5.879239 0.000000
0.000000 0.000000 8.339286
Fe Cu O
9 3 16
direct
0.500000 0.500000 0.997506 Fe
0.754460 0.000000 0.122558 Fe
0.245540 0.000000 0.122558 Fe
0.500000 0.752571 0.377513 Fe
0.500000 0.247429 0.377513 Fe
0.249772 0.500000 0.625921 Fe
0.750228 0.500000 0.625921 Fe
0.000000 0.754961 0.875955 Fe
0.000000 0.245039 0.875955 Fe
0.000000 0.500000 0.253365 Cu
0.000000 0.000000 0.501740 Cu
0.500000 0.000000 0.747056 Cu
0.000000 0.225877 0.109280 O
0.000000 0.774123 0.109280 O
0.500000 0.769609 0.128066 O
0.500000 0.230391 0.128066 O
0.726870 0.000000 0.356628 O
0.273130 0.000000 0.356628 O
0.271642 0.500000 0.391358 O
0.728358 0.500000 0.391358 O
0.500000 0.278163 0.611242 O
0.500000 0.721837 0.611242 O
0.000000 0.726327 0.642216 O
0.000000 0.273673 0.642216 O
0.229916 0.500000 0.866455 O
0.770084 0.500000 0.866455 O
0.778505 0.000000 0.887618 O
0.221495 0.000000 0.887618 O
