Sr4 Al2 Cu6 O14
1.0
5.223418 -0.001618 -1.202079
-0.279168 5.154045 -1.199840
0.054712 0.102748 12.116649
Sr Al Cu O
4 2 6 14
direct
0.332800 0.347084 0.697986 Sr
0.637495 0.659455 0.302852 Sr
0.832028 0.855907 0.697599 Sr
0.138787 0.153010 0.302233 Sr
0.987623 0.002033 0.000094 Al
0.484038 0.492721 0.000698 Al
0.259398 0.695531 0.500291 Cu
0.760413 0.307288 0.500231 Cu
0.921833 0.441312 0.880529 Cu
0.046607 0.562919 0.119967 Cu
0.422521 0.937127 0.880875 Cu
0.549176 0.060629 0.120385 Cu
0.104931 0.355470 0.500086 O
0.603062 0.639824 0.500209 O
0.249607 0.265283 0.889969 O
0.363355 0.733528 0.107666 O
0.749095 0.124438 0.893157 O
0.868081 0.882233 0.110567 O
0.604256 0.621798 0.892758 O
0.719977 0.381092 0.111527 O
0.102377 0.769238 0.889334 O
0.221372 0.235564 0.107737 O
0.311315 0.832945 0.660984 O
0.651657 0.169475 0.338880 O
0.810521 0.329068 0.661174 O
0.152318 0.673289 0.339500 O
