Rb2 Mg12 Cu2
1.0
   5.2629479999999997    0.0000000000000000    0.0000000000000000
   0.0000000000000000    6.5257980000000000    0.0000000000000000
   0.0000000000000000    0.0000000000000000   11.7405329999999992
Rb Mg Cu
2 12 2
direct
   0.5000000000000000    0.5000000000000000    0.1674150000000000 Rb
   0.5000000000000000    0.0000000000000000    0.6674150000000000 Rb
   0.5000000000000000    0.2546000000000000    0.4178440000000000 Mg
   0.5000000000000000    0.7454000000000000    0.4178440000000000 Mg
   0.0000000000000000    0.7745270000000000    0.0816670000000000 Mg
   0.0000000000000000    0.2254730000000000    0.0816670000000000 Mg
   0.0000000000000000    0.0000000000000000    0.3264570000000000 Mg
   0.0000000000000000    0.5000000000000000    0.3461550000000000 Mg
   0.5000000000000000    0.7546000000000000    0.9178440000000000 Mg
   0.5000000000000000    0.2454000000000000    0.9178440000000000 Mg
   0.0000000000000000    0.2745270000000000    0.5816670000000000 Mg
   0.0000000000000000    0.7254730000000000    0.5816670000000000 Mg
   0.0000000000000000    0.5000000000000000    0.8264570000000000 Mg
   0.0000000000000000    0.0000000000000000    0.8461550000000000 Mg
   0.5000000000000000    0.0000000000000000    0.1609440000000000 Cu
   0.5000000000000000    0.5000000000000000    0.6609440000000000 Cu
