Pr2 Mg2 Cu4 O12
1.0
5.255285 0.000000 0.000000
0.000000 5.441958 0.000000
0.000000 0.000000 7.549983
Pr Mg Cu O
2 2 4 12
direct
0.010669 0.705214 0.000000 Pr
0.510669 0.294786 0.500000 Pr
0.472403 0.185828 0.000000 Mg
0.972403 0.814172 0.500000 Mg
0.998661 0.249289 0.751838 Cu
0.998661 0.249289 0.248162 Cu
0.498661 0.750711 0.251838 Cu
0.498661 0.750711 0.748162 Cu
0.072461 0.200173 0.500000 O
0.229718 0.983983 0.804406 O
0.229718 0.983983 0.195594 O
0.309599 0.447560 0.193109 O
0.309599 0.447560 0.806891 O
0.370366 0.729513 0.500000 O
0.572461 0.799827 0.000000 O
0.729718 0.016017 0.695594 O
0.729718 0.016017 0.304406 O
0.809599 0.552440 0.693109 O
0.809599 0.552440 0.306891 O
0.870366 0.270487 0.000000 O
