Fe1 Cu1 Pd2
1.0
  -4.7632950000000003    5.4782460000000004    7.7322490000000004
   4.7632950000000003   -5.4782460000000004    7.7322490000000004
   4.7632950000000003    5.4782460000000004   -7.7322490000000004
Fe Cu Pd
1 1 2
direct
   0.0000000000000000    0.0000000000000000    0.0000000000000000 Fe
   0.0000000000000000    0.5000000000000000    0.5000000000000000 Cu
   0.0000000000000000    0.2390010000000000    0.2390010000000000 Pd
   0.0000000000000000    0.7609990000000000    0.7609990000000000 Pd
