Ce2 Cu2 Si2
1.0
   4.1731047200000004    0.0000000100000000   -0.0000000000000000
  -2.0865518399999998    3.6140151399999998   -0.0000000000000000
   0.0000000000000000   -0.0000000000000000    8.1394177600000006
Ce Cu Si
2 2 2
direct
  -0.0000000000000000    0.0000000000000000    0.5000000000000000 Ce
  -0.0000000000000000    0.0000000000000000   -0.0000000000000000 Ce
   0.3333330000000000    0.6666670000000000    0.2501759800000000 Cu
   0.6666670000000000    0.3333330000000000    0.7498240200000000 Cu
   0.6666670000000000    0.3333330000000000    0.2499721800000000 Si
   0.3333330000000000    0.6666670000000000    0.7500278200000000 Si
