Cs4 Cu1 Si2 O7
1.0
6.618079 0.000000 0.000000
-2.501391 7.143102 0.000000
-2.669581 -3.210441 6.375797
Cs Cu Si O
4 1 2 7
direct
0.287824 0.764430 0.226113 Cs
0.712176 0.235570 0.773887 Cs
0.605244 0.370129 0.275230 Cs
0.394756 0.629871 0.724770 Cs
0.000000 0.000000 0.500000 Cu
0.991149 0.864583 0.778471 Si
0.008851 0.135417 0.221529 Si
0.770377 0.991368 0.237739 O
0.963237 0.640360 0.766168 O
0.229623 0.008632 0.762261 O
0.237389 0.153296 0.423610 O
0.762611 0.846704 0.576390 O
0.036763 0.359640 0.233832 O
0.000000 0.000000 0.000000 O
