Li4 Cu2 P2 O8
1.0
5.066610 0.000000 0.000000
-0.029189 5.383258 0.000000
-0.000514 -0.027556 6.242901
Li Cu P O
4 2 2 8
direct
0.995164 0.672935 0.245774 Li
0.493910 0.327506 0.250207 Li
0.993853 0.154791 0.500540 Li
0.493463 0.324682 0.749660 Li
0.488964 0.819713 0.998361 Cu
0.993052 0.664585 0.761383 Cu
0.997910 0.183494 0.004934 P
0.499916 0.831242 0.494231 P
0.907920 0.905557 0.014776 O
0.304842 0.199653 0.000430 O
0.890390 0.319872 0.206841 O
0.388131 0.684640 0.296046 O
0.807685 0.830231 0.487296 O
0.394672 0.100295 0.498656 O
0.407649 0.683138 0.698034 O
0.885072 0.297667 0.792831 O
