Ta12 Zn6 Cu6 O42
1.0
8.393579 0.000000 0.000000
0.000000 10.694195 0.000000
0.000000 0.855073 11.161924
Ta Zn Cu O
12 6 6 42
direct
0.217472 0.288189 0.834283 Ta
0.746673 0.378590 0.834555 Ta
0.253327 0.878590 0.834555 Ta
0.782528 0.788189 0.834283 Ta
0.288958 0.966409 0.520670 Ta
0.746673 0.121410 0.165445 Ta
0.711042 0.466409 0.520670 Ta
0.253327 0.621410 0.165445 Ta
0.288958 0.533591 0.479330 Ta
0.711042 0.033591 0.479330 Ta
0.782528 0.711811 0.165717 Ta
0.217472 0.211811 0.165717 Ta
0.432544 0.576823 0.872555 Zn
0.943914 0.750000 0.500000 Zn
0.432544 0.923177 0.127445 Zn
0.056086 0.250000 0.500000 Zn
0.567456 0.423177 0.127445 Zn
0.567456 0.076823 0.872555 Zn
0.917512 0.415497 0.203585 Cu
0.082488 0.584503 0.796415 Cu
0.419778 0.250000 0.500000 Cu
0.917512 0.084503 0.796415 Cu
0.580222 0.750000 0.500000 Cu
0.082488 0.915497 0.203585 Cu
0.734134 0.963077 0.801834 O
0.759830 0.295815 0.161029 O
0.836525 0.750000 0.000000 O
0.895676 0.115998 0.496848 O
0.396702 0.571715 0.052140 O
0.928937 0.711440 0.737603 O
0.342945 0.940649 0.687486 O
0.104324 0.615998 0.496848 O
0.752237 0.864109 0.533550 O
0.396702 0.928285 0.947860 O
0.752237 0.635891 0.466450 O
0.447298 0.886678 0.438800 O
0.946512 0.053351 0.152350 O
0.071063 0.211440 0.737603 O
0.657055 0.059351 0.312514 O
0.342945 0.559351 0.312514 O
0.928937 0.788560 0.262397 O
0.603298 0.428285 0.947860 O
0.265866 0.463077 0.801834 O
0.552702 0.113322 0.561200 O
0.402720 0.299086 0.179584 O
0.247763 0.135891 0.466450 O
0.053488 0.553351 0.152350 O
0.247763 0.364109 0.533550 O
0.895676 0.384002 0.503152 O
0.552702 0.386678 0.438800 O
0.104324 0.884002 0.503152 O
0.597280 0.799086 0.179584 O
0.597280 0.700914 0.820416 O
0.053488 0.946649 0.847650 O
0.071063 0.288560 0.262397 O
0.734134 0.536923 0.198166 O
0.163475 0.250000 0.000000 O
0.240170 0.795815 0.161029 O
0.603298 0.071715 0.052140 O
0.946512 0.446649 0.847650 O
0.265866 0.036923 0.198166 O
0.759830 0.204185 0.838971 O
0.447298 0.613322 0.561200 O
0.657055 0.440649 0.687486 O
0.240170 0.704185 0.838971 O
0.402720 0.200914 0.820416 O
