Mn4 Cu1 O8
1.0
-0.047541 3.021459 -5.195916
1.620240 -2.550745 -5.195916
-5.283478 1.454324 -2.681265
Mn Cu O
4 1 8
direct
0.000000 0.500000 0.500000 Mn
0.000000 0.000000 0.000000 Mn
0.500000 0.000000 0.000000 Mn
0.000000 0.500000 0.000000 Mn
0.500000 0.500000 0.000000 Cu
0.461070 0.262588 0.801518 O
0.975866 0.279774 0.802003 O
0.477772 0.777868 0.802003 O
0.963035 0.742491 0.779456 O
0.036965 0.257509 0.220544 O
0.522228 0.222132 0.197997 O
0.024134 0.720226 0.197997 O
0.538930 0.737412 0.198482 O
