Fe4 Cu2 P4 O20
1.0
  -6.0862379999999998    0.0000070000000000    3.2769200000000001
  -6.0586979999999997    0.0000220000000000   -4.0076879999999999
   0.0000250000000000   -8.1408970000000007    0.0000380000000000
Fe Cu P O
4 2 4 20
direct
   0.2576230000000000    0.5169200000000000    0.2241360000000000 Fe
   0.7424050000000000    0.9831400000000000    0.7241670000000000 Fe
   0.2590070000000000    0.0244550000000000    0.2795940000000000 Fe
   0.7410530000000000    0.4755720000000000    0.7795470000000000 Fe
   0.0015630000000000    0.4997610000000000    0.4999840000000000 Cu
   0.9984390000000000    0.9999760000000000    0.9999780000000000 Cu
   0.7427859999999999    0.2560180000000000    0.4069710000000000 P
   0.7412620000000000    0.7564149999999999    0.0927460000000000 P
   0.2587170000000000    0.7435770000000000    0.5927180000000000 P
   0.2571960000000000    0.2439860000000000    0.9069960000000000 P
   0.6606400000000000    0.1353960000000000    0.5164470000000000 O
   0.6589469999999999    0.6350200000000000    0.9837690000000000 O
   0.3410140000000000    0.8650400000000000    0.4837940000000000 O
   0.3393610000000000    0.3646450000000000    0.0164240000000000 O
   0.5600130000000000    0.4224140000000000    0.3023310000000000 O
   0.5579180000000000    0.9244220000000000    0.1954300000000000 O
   0.4421170000000000    0.5756220000000000    0.6954060000000000 O
   0.4399770000000000    0.0776650000000000    0.8022930000000000 O
   0.8397310000000000    0.3574430000000000    0.5350310000000000 O
   0.8391080000000000    0.8555990000000000    0.9631090000000000 O
   0.1608620000000000    0.6443630000000000    0.4631100000000000 O
   0.1602790000000000    0.1424890000000000    0.0350180000000000 O
   0.9334710000000001    0.1147410000000000    0.2939400000000000 O
   0.9324650000000000    0.6156020000000000    0.2044900000000000 O
   0.0675250000000000    0.8844210000000000    0.7044840000000000 O
   0.0664840000000000    0.3853340000000000    0.7939830000000000 O
   0.2044890000000000    0.8014200000000000    0.1402690000000000 O
   0.2112620000000000    0.3007500000000000    0.3617790000000000 O
   0.7887380000000001    0.1992410000000000    0.8618390000000000 O
   0.7955500000000000    0.6985530000000000    0.6402170000000000 O
