Al20 Cu10 O40
1.0
2.874422 5.006587 0.000000
-2.874422 5.006587 0.000000
0.000000 3.117418 23.505950
Al Cu O
20 10 40
direct
0.652598 0.652598 0.050553 Al
0.120740 0.628746 0.125393 Al
0.254478 0.254478 0.249205 Al
0.325264 0.325264 0.023402 Al
0.628746 0.120740 0.125393 Al
0.720520 0.228932 0.325556 Al
0.924147 0.924147 0.223762 Al
0.854469 0.854469 0.449130 Al
0.228932 0.720520 0.325556 Al
0.320566 0.829090 0.525453 Al
0.524188 0.524188 0.423866 Al
0.454923 0.454923 0.648037 Al
0.829090 0.320566 0.525453 Al
0.920859 0.427915 0.725720 Al
0.125349 0.125349 0.623922 Al
0.523067 0.523067 0.925336 Al
0.427915 0.920859 0.725720 Al
0.722387 0.722387 0.826610 Al
0.522862 0.027372 0.925191 Al
0.027372 0.522862 0.925191 Al
0.000628 0.000628 0.999003 Cu
0.599071 0.599071 0.200202 Cu
0.120353 0.120353 0.125312 Cu
0.198892 0.198892 0.400254 Cu
0.720051 0.720051 0.325687 Cu
0.799054 0.799054 0.600915 Cu
0.320203 0.320203 0.525403 Cu
0.399556 0.399556 0.800797 Cu
0.921140 0.921140 0.725922 Cu
0.048339 0.048339 0.849508 Cu
0.996896 0.481708 0.073843 O
0.481708 0.996896 0.073843 O
0.286371 0.286371 0.171188 O
0.792985 0.792985 0.171938 O
0.596276 0.080433 0.273953 O
0.466395 0.466395 0.077087 O
0.886952 0.886952 0.370919 O
0.080433 0.596276 0.273953 O
0.780362 0.236892 0.174210 O
0.963007 0.963007 0.082102 O
0.392854 0.392854 0.372163 O
0.236892 0.780362 0.174210 O
0.067600 0.067600 0.276076 O
0.196087 0.680607 0.473774 O
0.680607 0.196087 0.473774 O
0.379752 0.837307 0.374329 O
0.562372 0.562372 0.282783 O
0.487531 0.487531 0.569796 O
0.993249 0.993249 0.571895 O
0.794957 0.283847 0.672447 O
0.667939 0.667939 0.475609 O
0.837307 0.379752 0.374329 O
0.283847 0.794957 0.672447 O
0.086769 0.086769 0.763308 O
0.980149 0.438788 0.573815 O
0.162666 0.162666 0.482656 O
0.593184 0.593184 0.772404 O
0.412992 0.850935 0.880456 O
0.271091 0.271091 0.673880 O
0.438788 0.980149 0.573815 O
0.850935 0.412992 0.880456 O
0.577660 0.037416 0.775689 O
0.674518 0.674518 0.973714 O
0.765651 0.765651 0.683769 O
0.195905 0.195905 0.972490 O
0.851358 0.851358 0.880640 O
0.037416 0.577660 0.775689 O
0.370591 0.370591 0.884340 O
0.196783 0.635514 0.972395 O
0.635514 0.196783 0.972395 O
