Na2 Li2 Cu1 I2 O2
1.0
  -2.0457060000000000    2.0457060000000000   11.2716860000000008
   2.0457060000000000   -2.0457060000000000   11.2716860000000008
   2.0457060000000000    2.0457060000000000  -11.2716860000000008
Na Li Cu I O
2 2 1 2 2
direct
   0.9452960000000000    0.9452960000000000    0.0000000000000000 Na
   0.0547040000000000    0.0547040000000000    0.0000000000000000 Na
   0.7500000000000000    0.2500000000000000    0.5000000000000000 Li
   0.2500000000000000    0.7500000000000000    0.5000000000000000 Li
   0.5000000000000000    0.5000000000000000    0.0000000000000000 Cu
   0.3291700000000000    0.3291700000000000    0.0000000000000000 I
   0.6708300000000000    0.6708300000000000    0.0000000000000000 I
   0.5000000000000000    0.0000000000000000    0.5000000000000000 O
   0.0000000000000000    0.5000000000000000    0.5000000000000000 O
