Sr5 Nd5 Cu1 Ni4 O20
1.0
   3.8413629999999999    0.0000000000000000    0.0000000000000000
   1.8818770000000000    6.5817839999999999    0.0000000000000000
   1.7889470000000001    1.4655590000000001   18.7037790000000008
Sr Nd Cu Ni O
5 5 1 4 20
direct
   0.3490160000000000    0.7567950000000000    0.5278650000000000 Sr
   0.3723890000000000    0.5446990000000000    0.7217880000000000 Sr
   0.3958600000000000    0.3248780000000000    0.9113070000000000 Sr
   0.5798590000000000    0.6515300000000001    0.0838100000000000 Sr
   0.6228830000000000    0.4532090000000000    0.2761140000000000 Sr
   0.3309380000000000    0.1519640000000000    0.1410760000000000 Nd
   0.3457010000000000    0.9511350000000000    0.3336450000000000 Nd
   0.6281150000000000    0.2599900000000000    0.4693120000000000 Nd
   0.6746110000000000    0.8305570000000000    0.8591020000000000 Nd
   0.6403020000000000    0.0529690000000000    0.6634620000000000 Nd
   0.9889829999999999    0.9960080000000000    0.0018790000000000 Cu
   0.9799110000000000    0.8008260000000000    0.2037200000000000 Ni
   0.9851910000000000    0.6079750000000000    0.4014760000000000 Ni
   0.9930980000000000    0.4052740000000000    0.5973290000000000 Ni
   0.0196300000000000    0.1844390000000000    0.7960210000000000 Ni
   0.9520560000000000    0.9547830000000000    0.1018120000000000 O
   0.9739320000000000    0.7210320000000000    0.3058910000000000 O
   0.9928740000000000    0.4996450000000000    0.4977710000000000 O
   0.0218240000000000    0.2675830000000000    0.6922100000000000 O
   0.0326740000000000    0.0479830000000000    0.9014980000000000 O
   0.1708880000000000    0.4449200000000000    0.0292630000000000 O
   0.8192140000000000    0.1107000000000000    0.2319990000000000 O
   0.8134550000000000    0.9302530000000000    0.4259230000000000 O
   0.8217050000000000    0.7161670000000000    0.6336140000000000 O
   0.8489150000000000    0.4931920000000000    0.8294540000000000 O
   0.4839870000000000    0.0017590000000000    0.0053090000000000 O
   0.4703690000000000    0.8202870000000000    0.2054590000000000 O
   0.4857180000000000    0.6072200000000000    0.4013050000000000 O
   0.5024570000000000    0.3879410000000000    0.5943230000000000 O
   0.5323530000000000    0.1628570000000000    0.7906130000000000 O
   0.1517010000000000    0.4876080000000000    0.1764320000000000 O
   0.1594490000000000    0.2835130000000000    0.3751060000000000 O
   0.1507100000000000    0.1038420000000000    0.5627920000000000 O
   0.1880760000000000    0.8698790000000000    0.7758699999999999 O
   0.0211580000000000    0.6165870000000000    0.9754500000000000 O
