Li16 Mn15 Cu3 O36
1.0
-7.815510 -4.945185 0.342555
-7.454680 4.345963 0.103645
0.323441 0.268076 -10.269395
Li Mn Cu O
16 15 3 36
direct
0.893890 0.899874 0.226238 Li
0.775227 0.766855 0.781800 Li
0.896445 0.547890 0.230672 Li
0.544473 0.893737 0.221898 Li
0.451907 0.747514 0.776550 Li
0.768572 0.439955 0.784342 Li
0.555103 0.556552 0.223166 Li
0.210349 0.914173 0.213764 Li
0.908510 0.226120 0.223087 Li
0.775955 0.117433 0.777782 Li
0.129785 0.770328 0.776765 Li
0.548404 0.227420 0.219152 Li
0.219521 0.544187 0.222173 Li
0.123740 0.439672 0.780376 Li
0.442851 0.120114 0.770376 Li
0.115790 0.108543 0.778572 Li
0.835551 0.831128 0.508569 Mn
0.338358 0.997632 0.997057 Mn
0.003909 0.333860 0.997846 Mn
0.835735 0.497772 0.509423 Mn
0.495854 0.836306 0.492412 Mn
0.331054 0.667995 0.002971 Mn
0.665488 0.331930 0.003994 Mn
0.165754 0.833442 0.499273 Mn
0.495990 0.501502 0.496543 Mn
0.835276 0.164867 0.506620 Mn
0.993903 0.672178 0.004391 Mn
0.672322 0.995314 0.996627 Mn
0.493262 0.171076 0.487975 Mn
0.166968 0.498512 0.499131 Mn
0.165586 0.168266 0.495280 Mn
0.670480 0.660966 0.003652 Cu
0.334389 0.332963 0.000009 Cu
0.996394 0.005528 0.997653 Cu
0.940963 0.942229 0.409794 O
0.875971 0.890032 0.898445 O
0.787783 0.777900 0.104032 O
0.589770 0.952502 0.392037 O
0.938351 0.610191 0.411053 O
0.741323 0.714174 0.606953 O
0.578665 0.877512 0.883335 O
0.918787 0.540777 0.882720 O
0.414291 0.798474 0.118486 O
0.760798 0.447736 0.122260 O
0.939900 0.276755 0.408886 O
0.238520 0.959455 0.392440 O
0.588632 0.619983 0.396507 O
0.389401 0.726646 0.589871 O
0.743962 0.379413 0.606776 O
0.908896 0.217018 0.880470 O
0.255356 0.866479 0.881424 O
0.571927 0.540526 0.895166 O
0.420538 0.460724 0.115509 O
0.749933 0.124773 0.118988 O
0.085061 0.791735 0.115789 O
0.238942 0.627629 0.393558 O
0.588388 0.288730 0.393384 O
0.387408 0.389338 0.585123 O
0.743767 0.046846 0.605511 O
0.091185 0.707018 0.606933 O
0.190829 0.579537 0.907864 O
0.588735 0.196227 0.888695 O
0.076514 0.472429 0.112453 O
0.476220 0.088094 0.093238 O
0.236159 0.298492 0.390992 O
0.092915 0.371097 0.605488 O
0.389572 0.059928 0.586267 O
0.247878 0.205666 0.884731 O
0.097548 0.125608 0.104353 O
0.091685 0.040019 0.604335 O
