Mg30 Co1 Cu1 O32
1.0
8.507373 0.000000 0.000000
0.000000 8.507373 0.000000
0.000000 0.000000 8.502400
Mg Co Cu O
30 1 1 32
direct
0.000000 0.500000 0.000000 Mg
0.000000 0.500000 0.500000 Mg
0.500000 0.000000 0.000000 Mg
0.500000 0.000000 0.500000 Mg
0.500000 0.500000 0.000000 Mg
0.500000 0.500000 0.500000 Mg
0.000000 0.247008 0.248752 Mg
0.000000 0.247008 0.751248 Mg
0.000000 0.752992 0.248752 Mg
0.000000 0.752992 0.751248 Mg
0.500000 0.249177 0.250308 Mg
0.500000 0.249177 0.749692 Mg
0.500000 0.750823 0.250308 Mg
0.500000 0.750823 0.749692 Mg
0.247008 0.000000 0.248752 Mg
0.247008 0.000000 0.751248 Mg
0.249177 0.500000 0.250308 Mg
0.249177 0.500000 0.749692 Mg
0.752992 0.000000 0.248752 Mg
0.752992 0.000000 0.751248 Mg
0.750823 0.500000 0.250308 Mg
0.750823 0.500000 0.749692 Mg
0.248773 0.248773 0.000000 Mg
0.248001 0.248001 0.500000 Mg
0.248773 0.751227 0.000000 Mg
0.248001 0.751999 0.500000 Mg
0.751227 0.248773 0.000000 Mg
0.751999 0.248001 0.500000 Mg
0.751227 0.751227 0.000000 Mg
0.751999 0.751999 0.500000 Mg
0.000000 0.000000 0.500000 Co
0.000000 0.000000 0.000000 Cu
0.258442 0.000000 0.000000 O
0.239994 0.000000 0.500000 O
0.250587 0.500000 0.000000 O
0.247618 0.500000 0.500000 O
0.741558 0.000000 0.000000 O
0.760006 0.000000 0.500000 O
0.749413 0.500000 0.000000 O
0.752382 0.500000 0.500000 O
0.249394 0.249394 0.250788 O
0.249394 0.249394 0.749212 O
0.249394 0.750606 0.250788 O
0.249394 0.750606 0.749212 O
0.750606 0.249394 0.250788 O
0.750606 0.249394 0.749212 O
0.750606 0.750606 0.250788 O
0.750606 0.750606 0.749212 O
0.000000 0.000000 0.241913 O
0.000000 0.000000 0.758087 O
0.000000 0.500000 0.254539 O
0.000000 0.500000 0.745461 O
0.500000 0.000000 0.254539 O
0.500000 0.000000 0.745461 O
0.500000 0.500000 0.251698 O
0.500000 0.500000 0.748302 O
0.000000 0.258442 0.000000 O
0.000000 0.239994 0.500000 O
0.000000 0.741558 0.000000 O
0.000000 0.760006 0.500000 O
0.500000 0.250587 0.000000 O
0.500000 0.247618 0.500000 O
0.500000 0.749413 0.000000 O
0.500000 0.752382 0.500000 O
