Er2 Cu1 Si3
1.0
  -1.9587843300000001    2.0159790499999999    6.8677275499999997
   1.9587843300000001   -2.0159790499999999    6.8677275499999997
   1.9587843300000001    2.0159790499999999   -6.8677275499999997
Er Cu Si
2 1 3
direct
   0.7537410100000000    0.2537410100000000    0.5000000000000000 Er
   0.9975897300000000    0.9975897300000000   -0.0000000000000000 Er
   0.1634954000000000    0.6634954000000000    0.5000000000000000 Cu
   0.5880583200000000    0.5880583200000000   -0.0000000000000000 Si
   0.3266537700000000    0.8266537700000000    0.5000000000000000 Si
   0.4204607700000000    0.4204607700000000    0.0000000000000000 Si
