Cu10 O14
1.0
1.458446 -4.914852 0.000000
1.458446 4.914852 0.000000
0.000000 0.000000 17.879397
Cu O
10 14
direct
0.732623 0.267377 0.574611 Cu
0.000000 0.000000 0.500000 Cu
0.000000 0.000000 0.000000 Cu
0.267377 0.732623 0.425389 Cu
0.267377 0.732623 0.074611 Cu
0.732623 0.267377 0.925389 Cu
0.531961 0.468039 0.155187 Cu
0.468039 0.531961 0.844813 Cu
0.468039 0.531961 0.655187 Cu
0.531961 0.468039 0.344813 Cu
0.358706 0.641294 0.977020 O
0.641294 0.358706 0.022980 O
0.641294 0.358706 0.477020 O
0.358706 0.641294 0.522980 O
0.841790 0.158210 0.841402 O
0.158210 0.841790 0.158598 O
0.158210 0.841790 0.341402 O
0.841790 0.158210 0.658598 O
0.082901 0.917099 0.898907 O
0.917099 0.082901 0.101093 O
0.917099 0.082901 0.398907 O
0.082901 0.917099 0.601093 O
0.546560 0.453440 0.750000 O
0.453440 0.546560 0.250000 O
