Cu6 O4 F4
1.0
5.588191 0.000000 0.143771
0.000000 6.109678 0.000000
-2.442108 0.000000 4.702480
Cu O F
6 4 4
direct
0.000000 0.500000 0.500000 Cu
0.000000 0.000000 0.000000 Cu
0.462339 0.117487 0.749178 Cu
0.537661 0.617487 0.750822 Cu
0.462339 0.382513 0.249178 Cu
0.537661 0.882513 0.250822 Cu
0.321517 0.373907 0.531265 O
0.678483 0.873907 0.968735 O
0.321517 0.126093 0.031265 O
0.678483 0.626093 0.468735 O
0.223251 0.613323 0.879980 F
0.223251 0.886677 0.379980 F
0.776749 0.113323 0.620020 F
0.776749 0.386677 0.120020 F
