Co4 Cu2 O8
1.0
   0.0000000000000000    4.1471809999999998    4.1471809999999998
   4.1471809999999998    0.0000000000000000    4.1471809999999998
   4.1471809999999998    4.1471809999999998    0.0000000000000000
Co Cu O
4 2 8
direct
   0.6250000000000000    0.1250000000000000    0.6250000000000000 Co
   0.6250000000000000    0.6250000000000000    0.1250000000000000 Co
   0.1250000000000000    0.6250000000000000    0.6250000000000000 Co
   0.6250000000000000    0.6250000000000000    0.6250000000000000 Co
   0.0000000000000000    0.0000000000000000    0.0000000000000000 Cu
   0.2500000000000000    0.2500000000000000    0.2500000000000000 Cu
   0.3860830000000000    0.3860830000000000    0.3860830000000000 O
   0.8417519999999999    0.3860830000000000    0.3860830000000000 O
   0.3860830000000000    0.3860830000000000    0.8417519999999999 O
   0.3860830000000000    0.8417519999999999    0.3860830000000000 O
   0.8639170000000000    0.4082480000000000    0.8639170000000000 O
   0.8639170000000000    0.8639170000000000    0.4082480000000000 O
   0.4082480000000000    0.8639170000000000    0.8639170000000000 O
   0.8639170000000000    0.8639170000000000    0.8639170000000000 O
