Li2 Cu2 P2 O8
1.0
0.000000 4.864191 5.466806
2.782276 0.000000 5.466806
2.782276 4.864191 0.000000
Li Cu P O
2 2 2 8
direct
0.816753 0.183247 0.816753 Li
0.066753 0.433247 0.066753 Li
0.718996 0.781004 0.718996 Cu
0.468996 0.531004 0.468996 Cu
0.117054 0.882946 0.117054 P
0.367054 0.132946 0.367054 P
0.401365 0.264211 0.529926 O
0.529926 0.804498 0.401365 O
0.445502 0.720074 0.985789 O
0.985789 0.848635 0.445502 O
0.515387 0.131742 0.025625 O
0.922754 0.224375 0.118258 O
0.118258 0.734613 0.922754 O
0.025625 0.327246 0.515387 O
