Al1 Cu3 W4 O12
1.0
6.614128 0.000000 0.000000
-2.204640 6.328846 0.000000
-2.143007 -3.125710 5.529889
Al Cu W O
1 3 4 12
direct
0.000000 0.000000 0.000000 Al
0.500000 0.500000 0.000000 Cu
0.500000 0.000000 0.500000 Cu
0.000000 0.500000 0.500000 Cu
0.500000 0.500000 0.500000 W
0.000000 0.000000 0.500000 W
0.000000 0.500000 0.000000 W
0.500000 0.000000 0.000000 W
0.821915 0.514659 0.698128 O
0.178085 0.485341 0.301872 O
0.812725 0.113951 0.299481 O
0.290342 0.795205 0.101035 O
0.493366 0.319864 0.197470 O
0.109788 0.286205 0.808250 O
0.692875 0.824982 0.518626 O
0.506634 0.680136 0.802530 O
0.187275 0.886049 0.700519 O
0.709658 0.204795 0.898965 O
0.890212 0.713795 0.191750 O
0.307125 0.175018 0.481374 O
