Y1 Cu1 O3
1.0
3.782154 0.000000 0.000000
0.000000 3.782154 0.000000
0.000000 0.000000 3.782154
Y Cu O
1 1 3
direct
0.000000 0.000000 0.000000 Y
0.500000 0.500000 0.500000 Cu
0.500000 0.500000 0.000000 O
0.500000 0.000000 0.500000 O
0.000000 0.500000 0.500000 O
