Ca1 Cu3 Ru4 O12
1.0
-3.749661 3.749661 3.749661
3.749661 -3.749661 3.749661
3.749661 3.749661 -3.749661
Ca Cu Ru O
1 3 4 12
direct
0.000000 0.000000 0.000000 Ca
0.500000 0.000000 0.500000 Cu
0.000000 0.500000 0.500000 Cu
0.500000 0.500000 0.000000 Cu
0.000000 0.000000 0.500000 Ru
0.500000 0.000000 0.000000 Ru
0.000000 0.500000 0.000000 Ru
0.500000 0.500000 0.500000 Ru
0.693630 0.827713 0.521343 O
0.693630 0.172287 0.865916 O
0.306370 0.827713 0.134084 O
0.306370 0.172287 0.478657 O
0.827713 0.521343 0.693630 O
0.172287 0.865916 0.693630 O
0.827713 0.134084 0.306370 O
0.172287 0.478657 0.306370 O
0.521343 0.693630 0.827713 O
0.865916 0.693630 0.172287 O
0.134084 0.306370 0.827713 O
0.478657 0.306370 0.172287 O
