Mg14 Cu1 Si1 O16
1.0
4.251064 0.000000 0.000000
0.000000 8.555532 0.000000
0.000000 0.000000 8.592937
Mg Cu Si O
14 1 1 16
direct
0.000000 0.000000 0.500000 Mg
0.000000 0.500000 0.500000 Mg
0.500000 0.756612 0.000000 Mg
0.500000 0.243388 0.000000 Mg
0.500000 0.752711 0.500000 Mg
0.500000 0.247289 0.500000 Mg
0.500000 0.000000 0.751919 Mg
0.500000 0.500000 0.748813 Mg
0.500000 0.000000 0.248081 Mg
0.500000 0.500000 0.251187 Mg
0.000000 0.756069 0.749480 Mg
0.000000 0.243931 0.749480 Mg
0.000000 0.756069 0.250520 Mg
0.000000 0.243931 0.250520 Mg
0.000000 0.000000 0.000000 Cu
0.000000 0.500000 0.000000 Si
0.000000 0.000000 0.733759 O
0.000000 0.500000 0.760284 O
0.000000 0.000000 0.266241 O
0.000000 0.500000 0.239716 O
0.500000 0.749349 0.752402 O
0.500000 0.250651 0.752402 O
0.500000 0.749349 0.247598 O
0.500000 0.250651 0.247598 O
0.500000 0.000000 0.000000 O
0.500000 0.500000 0.000000 O
0.500000 0.000000 0.500000 O
0.500000 0.500000 0.500000 O
0.000000 0.710572 0.000000 O
0.000000 0.289428 0.000000 O
0.000000 0.744218 0.500000 O
0.000000 0.255782 0.500000 O
