Al2 Cu6 O12
1.0
9.346564 0.467304 -0.017545
-1.422886 2.475700 -0.014336
-0.022897 -0.074586 11.228610
Al Cu O
2 6 12
direct
0.663701 0.997784 0.000350 Al
0.003063 0.007236 0.501081 Al
0.225370 0.334203 0.753468 Cu
0.564003 0.335069 0.747716 Cu
0.878751 0.324640 0.748754 Cu
0.107750 0.662355 0.250703 Cu
0.439909 0.662504 0.250362 Cu
0.780761 0.677040 0.249723 Cu
0.081750 0.621282 0.407853 O
0.434193 0.638617 0.404327 O
0.819790 0.734035 0.400501 O
0.227898 0.341732 0.906456 O
0.583145 0.374259 0.905632 O
0.845859 0.269909 0.899509 O
0.115444 0.680578 0.099817 O
0.479820 0.728068 0.096888 O
0.744511 0.621642 0.094352 O
0.185948 0.279374 0.599900 O
0.547444 0.302685 0.596424 O
0.923099 0.391065 0.594392 O
