Mg4 Cu4 O8
1.0
2.891914 0.000000 0.000000
-1.433421 8.167158 0.000000
-1.405157 -0.256366 8.195303
Mg Cu O
4 4 8
direct
0.916711 0.573307 0.272152 Mg
0.083289 0.426693 0.727848 Mg
0.291785 0.208528 0.378346 Mg
0.708215 0.791472 0.621654 Mg
0.318045 0.690352 0.942327 Cu
0.098530 0.888945 0.308644 Cu
0.901470 0.111055 0.691356 Cu
0.681955 0.309648 0.057673 Cu
0.089303 0.266789 0.910990 O
0.313599 0.943788 0.683549 O
0.686401 0.056212 0.316451 O
0.910697 0.733211 0.089010 O
0.696358 0.607904 0.774782 O
0.544545 0.711840 0.393302 O
0.303642 0.392096 0.225218 O
0.455455 0.288160 0.606698 O
