Cr4 Cu2 O8
1.0
-0.001004 0.001422 5.972853
5.178399 -0.001422 -2.976433
1.733176 4.879747 2.976432
Cr Cu O
4 2 8
direct
0.000000 0.500000 0.500000 Cr
0.500001 0.500000 0.499999 Cr
0.000000 0.000000 0.499999 Cr
0.500000 0.500000 0.000000 Cr
0.749999 0.125000 0.125001 Cu
0.250000 0.875000 0.875000 Cu
0.975467 0.737020 0.738447 O
0.524533 0.286087 0.738447 O
0.975468 0.738447 0.286086 O
0.475467 0.261553 0.262980 O
0.024533 0.261554 0.713913 O
0.475467 0.713914 0.261554 O
0.524533 0.738447 0.737020 O
0.024532 0.262979 0.261554 O
