K2 Pr1 Cu1 I6
1.0
   0.0000000000000000    5.9907219999999999    5.9907219999999999
   5.9907219999999999    0.0000000000000000    5.9907219999999999
   5.9907219999999999    5.9907219999999999    0.0000000000000000
K Pr Cu I
2 1 1 6
direct
   0.7500000000000000    0.7500000000000000    0.7500000000000000 K
   0.2500000000000000    0.2500000000000000    0.2500000000000000 K
   0.5000000000000000    0.5000000000000000    0.5000000000000000 Pr
   0.0000000000000000    0.0000000000000000    0.0000000000000000 Cu
   0.7604580000000000    0.2395420000000000    0.2395420000000000 I
   0.2395420000000000    0.2395420000000000    0.7604580000000000 I
   0.2395420000000000    0.7604580000000000    0.7604580000000000 I
   0.2395420000000000    0.7604580000000000    0.2395420000000000 I
   0.7604580000000000    0.2395420000000000    0.7604580000000000 I
   0.7604580000000000    0.7604580000000000    0.2395420000000000 I
