Co4 Cu2 O8
1.0
   5.0859899999999998   -0.0026390000000000    2.9320889999999999
   1.6928420000000000    4.7880799999999999    2.9320889999999999
   0.0000000000000000    0.0000000000000000    5.8641759999999996
Co Cu O
4 2 8
direct
   0.2489850000000000    0.2503380000000000    0.2503380000000000 Co
   0.6257720000000000    0.6254500000000000    0.1233280000000000 Co
   0.6257720000000000    0.1233280000000000    0.6254500000000000 Co
   0.6257720000000000    0.6254500000000000    0.6254500000000000 Co
   0.9998470000000000    0.0000510000000000    0.0000510000000000 Cu
   0.1260830000000000    0.6246390000000001    0.6246390000000001 Cu
   0.3926580000000000    0.3816960000000000    0.3816960000000000 O
   0.3926580000000000    0.3816960000000000    0.8439510000000000 O
   0.3926580000000000    0.8439510000000000    0.3816960000000000 O
   0.8368450000000000    0.3877180000000000    0.3877180000000000 O
   0.4134920000000000    0.8621690000000000    0.8621690000000000 O
   0.8564860000000000    0.8683280000000000    0.4068570000000000 O
   0.8564860000000000    0.4068570000000000    0.8683280000000000 O
   0.8564860000000000    0.8683280000000000    0.8683280000000000 O
