Mg14 Cu1 Si1 O16
1.0
8.578288 0.000000 0.000000
0.000000 8.578288 0.000000
0.000000 0.000000 4.256833
Mg Cu Si O
14 1 1 16
direct
0.500000 0.000000 0.000000 Mg
0.000000 0.500000 0.000000 Mg
0.245283 0.000000 0.500000 Mg
0.754717 0.000000 0.500000 Mg
0.247119 0.500000 0.500000 Mg
0.752881 0.500000 0.500000 Mg
0.000000 0.245283 0.500000 Mg
0.500000 0.247119 0.500000 Mg
0.000000 0.754717 0.500000 Mg
0.500000 0.752881 0.500000 Mg
0.243350 0.243350 0.000000 Mg
0.756650 0.243350 0.000000 Mg
0.243350 0.756650 0.000000 Mg
0.756650 0.756650 0.000000 Mg
0.000000 0.000000 0.000000 Cu
0.500000 0.500000 0.000000 Si
0.000000 0.268637 0.000000 O
0.500000 0.267046 0.000000 O
0.000000 0.731363 0.000000 O
0.500000 0.732954 0.000000 O
0.250880 0.250880 0.500000 O
0.749120 0.250880 0.500000 O
0.250880 0.749120 0.500000 O
0.749120 0.749120 0.500000 O
0.000000 0.000000 0.500000 O
0.500000 0.000000 0.500000 O
0.000000 0.500000 0.500000 O
0.500000 0.500000 0.500000 O
0.268637 0.000000 0.000000 O
0.731363 0.000000 0.000000 O
0.267046 0.500000 0.000000 O
0.732954 0.500000 0.000000 O
