Zn4 Cu4 Ge8 O24
1.0
9.450966 0.000000 0.000000
0.000000 5.435085 0.000000
0.000000 1.570859 9.492526
Zn Cu Ge O
4 4 8 24
direct
0.504880 0.548347 0.249569 Zn
0.004880 0.951653 0.750431 Zn
0.495120 0.451653 0.750431 Zn
0.995120 0.048347 0.249569 Zn
0.649772 0.040320 0.242099 Cu
0.149772 0.459680 0.757901 Cu
0.350228 0.959680 0.757901 Cu
0.850228 0.540320 0.242099 Cu
0.339349 0.173205 0.060140 Ge
0.839349 0.326795 0.939860 Ge
0.660651 0.826795 0.939860 Ge
0.160651 0.673205 0.060140 Ge
0.340427 0.764426 0.461205 Ge
0.840427 0.735574 0.538795 Ge
0.659573 0.235574 0.538795 Ge
0.159573 0.264426 0.461205 Ge
0.273822 0.508151 0.386413 O
0.773822 0.991849 0.613587 O
0.726178 0.491849 0.613587 O
0.226178 0.008151 0.386413 O
0.311419 0.842717 0.110443 O
0.811419 0.657283 0.889557 O
0.688581 0.157283 0.889557 O
0.188581 0.342717 0.110443 O
0.990632 0.285992 0.386238 O
0.490632 0.214008 0.613762 O
0.009368 0.714008 0.613762 O
0.509368 0.785992 0.386238 O
0.011291 0.768021 0.144661 O
0.511291 0.731979 0.855339 O
0.988709 0.231979 0.855339 O
0.488709 0.268021 0.144661 O
0.350038 0.226295 0.872747 O
0.850038 0.273705 0.127253 O
0.649962 0.773705 0.127253 O
0.149962 0.726295 0.872747 O
0.330169 0.689954 0.648713 O
0.830169 0.810046 0.351287 O
0.669831 0.310046 0.351287 O
0.169831 0.189954 0.648713 O
