Ti2 Nb2 Cu3 O12
1.0
3.770918 5.291081 0.000000
-3.770918 5.291081 0.000000
0.000000 5.286884 5.359474
Ti Nb Cu O
2 2 3 12
direct
0.000000 0.500000 0.500000 Ti
0.500000 0.000000 0.500000 Ti
0.500000 0.000000 0.000000 Nb
0.000000 0.500000 0.000000 Nb
0.500000 0.500000 0.000000 Cu
0.500000 0.500000 0.500000 Cu
0.000000 0.000000 0.500000 Cu
0.183569 0.183569 0.505175 O
0.869405 0.507214 0.313294 O
0.492786 0.130595 0.686706 O
0.313699 0.690094 0.817071 O
0.690094 0.313699 0.817071 O
0.178107 0.178107 0.134549 O
0.821893 0.821893 0.865451 O
0.309906 0.686301 0.182929 O
0.686301 0.309906 0.182929 O
0.507214 0.869405 0.313294 O
0.130595 0.492786 0.686706 O
0.816431 0.816431 0.494825 O
