Ba7 Sr1 Cu8 O24
1.0
7.995818 0.000000 0.000000
0.000000 7.995818 0.000000
0.000000 0.000000 7.995818
Ba Sr Cu O
7 1 8 24
direct
0.500000 0.000000 0.500000 Ba
0.500000 0.000000 0.000000 Ba
0.500000 0.500000 0.500000 Ba
0.500000 0.500000 0.000000 Ba
0.000000 0.000000 0.500000 Ba
0.000000 0.500000 0.500000 Ba
0.000000 0.500000 0.000000 Ba
0.000000 0.000000 0.000000 Sr
0.249976 0.750024 0.249976 Cu
0.249976 0.750024 0.750024 Cu
0.249976 0.249976 0.249976 Cu
0.249976 0.249976 0.750024 Cu
0.750024 0.750024 0.249976 Cu
0.750024 0.750024 0.750024 Cu
0.750024 0.249976 0.249976 Cu
0.750024 0.249976 0.750024 Cu
0.500000 0.750470 0.249530 O
0.500000 0.750470 0.750470 O
0.500000 0.249530 0.249530 O
0.500000 0.249530 0.750470 O
0.000000 0.755307 0.244693 O
0.000000 0.755307 0.755307 O
0.000000 0.244693 0.244693 O
0.000000 0.244693 0.755307 O
0.244693 0.000000 0.244693 O
0.244693 0.000000 0.755307 O
0.249530 0.500000 0.249530 O
0.249530 0.500000 0.750470 O
0.755307 0.000000 0.244693 O
0.755307 0.000000 0.755307 O
0.750470 0.500000 0.249530 O
0.750470 0.500000 0.750470 O
0.249530 0.750470 0.500000 O
0.244693 0.755307 0.000000 O
0.249530 0.249530 0.500000 O
0.244693 0.244693 0.000000 O
0.750470 0.750470 0.500000 O
0.755307 0.755307 0.000000 O
0.750470 0.249530 0.500000 O
0.755307 0.244693 0.000000 O
