Ca2 Cu1 W1 O6
1.0
2.822638 -2.929755 -3.892049
-0.034849 5.757075 0.001884
0.000430 0.002507 7.782527
Ca Cu W O
2 1 1 6
direct
0.998672 0.539857 0.244109 Ca
0.997347 0.541563 0.751177 Ca
0.996255 0.990410 0.496278 Cu
0.001048 0.983501 0.999185 W
0.996672 0.959809 0.244601 O
0.011038 0.977199 0.756630 O
0.501293 0.463609 0.254853 O
0.493325 0.944202 0.746527 O
0.461095 0.959229 0.227965 O
0.544192 0.489289 0.766298 O
