Ca3 V12 Cu6 O42
1.0
8.869493 0.000000 0.000000
0.000000 10.227163 0.000000
0.000000 0.308844 10.639023
Ca V Cu O
3 12 6 42
direct
0.060843 0.000000 0.500000 Ca
0.451720 0.683737 0.167596 Ca
0.451720 0.316263 0.832404 Ca
0.798527 0.541475 0.838902 V
0.249572 0.633549 0.833720 V
0.754288 0.130155 0.831702 V
0.196642 0.038965 0.837959 V
0.701905 0.211764 0.531114 V
0.249572 0.366451 0.166280 V
0.300850 0.706349 0.529914 V
0.754288 0.869845 0.168298 V
0.701905 0.788236 0.468886 V
0.300850 0.293651 0.470086 V
0.196642 0.961035 0.162041 V
0.798527 0.458525 0.161098 V
0.067863 0.659326 0.197115 Cu
0.932839 0.839090 0.802573 Cu
0.563762 0.500000 0.500000 Cu
0.067863 0.340674 0.802885 Cu
0.435872 0.000000 0.500000 Cu
0.932839 0.160910 0.197427 Cu
0.215856 0.211598 0.806925 O
0.223922 0.539772 0.174878 O
0.149423 0.000000 0.000000 O
0.129281 0.344561 0.495448 O
0.629950 0.829968 0.059141 O
0.066046 0.962453 0.733117 O
0.647108 0.192296 0.694450 O
0.875026 0.848155 0.492146 O
0.283908 0.122719 0.514850 O
0.629950 0.170032 0.940859 O
0.283908 0.877281 0.485150 O
0.570118 0.124547 0.442910 O
0.083212 0.278154 0.151447 O
0.936014 0.464950 0.746486 O
0.349646 0.315595 0.307012 O
0.647108 0.807704 0.305550 O
0.066046 0.037547 0.266883 O
0.362627 0.660000 0.955357 O
0.786811 0.710886 0.810856 O
0.426157 0.380060 0.570502 O
0.626643 0.518233 0.192408 O
0.712639 0.376933 0.485784 O
0.919286 0.777766 0.154716 O
0.712639 0.623067 0.514216 O
0.129281 0.655439 0.504552 O
0.426157 0.619940 0.429498 O
0.875026 0.151845 0.507854 O
0.366838 0.011210 0.193915 O
0.366838 0.988790 0.806085 O
0.919286 0.222234 0.845284 O
0.936014 0.535050 0.253514 O
0.215856 0.788402 0.193075 O
0.846462 0.500000 0.000000 O
0.783189 0.039789 0.169760 O
0.362627 0.340000 0.044643 O
0.083212 0.721846 0.848553 O
0.786811 0.289114 0.189144 O
0.223922 0.460228 0.825122 O
0.570118 0.875453 0.557090 O
0.349646 0.684405 0.692988 O
0.783189 0.960211 0.830240 O
0.626643 0.481767 0.807592 O
