Ba4 La4 Cu4 Te12
1.0
   4.5502789999999997    0.0000000000000000    0.0000000000000000
   0.0000000000000000   11.9863239999999998    0.0000000000000000
   0.0000000000000000    0.0000000000000000   15.0067629999999994
Ba La Cu Te
4 4 4 12
direct
   0.2500000000000000    0.2751500000000000    0.9983540000000000 Ba
   0.7500000000000000    0.7248500000000000    0.0016460000000000 Ba
   0.2500000000000000    0.7751500000000000    0.5016460000000000 Ba
   0.7500000000000000    0.2248500000000000    0.4983540000000000 Ba
   0.2500000000000000    0.0172740000000000    0.2419910000000000 La
   0.7500000000000000    0.9827260000000000    0.7580090000000000 La
   0.2500000000000000    0.5172740000000000    0.2580090000000000 La
   0.7500000000000000    0.4827260000000000    0.7419910000000000 La
   0.7500000000000000    0.2615230000000000    0.2192650000000000 Cu
   0.2500000000000000    0.2384770000000000    0.7192650000000000 Cu
   0.7500000000000000    0.7615229999999999    0.2807350000000000 Cu
   0.2500000000000000    0.7384770000000001    0.7807350000000000 Cu
   0.2500000000000000    0.2629730000000000    0.3212190000000000 Te
   0.7500000000000000    0.7370270000000000    0.6787810000000000 Te
   0.2500000000000000    0.7629730000000000    0.1787810000000000 Te
   0.7500000000000000    0.2370270000000000    0.8212190000000000 Te
   0.2500000000000000    0.4075350000000000    0.6048810000000000 Te
   0.7500000000000000    0.0924650000000000    0.1048810000000000 Te
   0.2500000000000000    0.9075350000000000    0.8951190000000000 Te
   0.7500000000000000    0.5924650000000000    0.3951190000000000 Te
   0.7500000000000000    0.4453330000000000    0.1165880000000000 Te
   0.2500000000000000    0.5546670000000000    0.8834120000000000 Te
   0.7500000000000000    0.9453330000000000    0.3834120000000000 Te
   0.2500000000000000    0.0546670000000000    0.6165880000000000 Te
