Ca4 Cu4 O8
1.0
2.952318 -0.216300 0.809896
0.854686 8.532878 0.093565
0.349686 -0.298001 8.521437
Ca Cu O
4 4 8
direct
0.590450 0.023964 0.199697 Ca
0.405841 0.955953 0.828311 Ca
0.191494 0.664342 0.099516 Ca
0.803141 0.315350 0.928875 Ca
0.627153 0.185322 0.559148 Cu
0.030177 0.361475 0.274453 Cu
0.961622 0.618672 0.754532 Cu
0.371691 0.794872 0.469024 Cu
0.749478 0.755858 0.619902 O
0.364699 0.504825 0.844830 O
0.628156 0.474653 0.183417 O
0.248904 0.224988 0.408267 O
0.006957 0.133094 0.702136 O
0.211488 0.151532 0.045492 O
0.992017 0.846794 0.325831 O
0.785008 0.827643 0.982185 O
