La2 Cu2 O6
1.0
4.683717 -2.782265 0.000000
4.683717 2.782265 0.000000
3.030970 0.000000 4.526745
La Cu O
2 2 6
direct
0.750000 0.750000 0.750000 La
0.250000 0.250000 0.250000 La
0.500000 0.500000 0.500000 Cu
0.000000 0.000000 0.000000 Cu
0.750000 0.189069 0.310931 O
0.310931 0.750000 0.189069 O
0.189069 0.310931 0.750000 O
0.250000 0.810931 0.689069 O
0.810931 0.689069 0.250000 O
0.689069 0.250000 0.810931 O
