K4 Cu4 O4
1.0
-4.693324 4.693324 2.778923
4.693324 -4.693324 2.778923
4.693324 4.693324 -2.778923
K Cu O
4 4 4
direct
0.748353 0.937057 0.188704 K
0.748353 0.559649 0.811296 K
0.062943 0.251647 0.811296 K
0.440351 0.251647 0.188704 K
0.389088 0.610912 0.500000 Cu
0.110912 0.889088 0.500000 Cu
0.389088 0.889088 0.778177 Cu
0.110912 0.610912 0.221823 Cu
0.238867 0.015498 0.776631 O
0.238867 0.462236 0.223369 O
0.984502 0.761133 0.223369 O
0.537764 0.761133 0.776631 O
