Ba2 Cu1 O3
1.0
-1.927091 2.086803 6.590733
1.927091 -2.086803 6.590733
1.927091 2.086803 -6.590733
Ba Cu O
2 1 3
direct
0.145238 0.645238 0.500000 Ba
0.854762 0.354762 0.500000 Ba
0.500000 0.000000 0.500000 Cu
0.000000 0.000000 0.000000 O
0.352672 0.852672 0.500000 O
0.647328 0.147328 0.500000 O
