Ba1 Ta1 Cu1 O5
1.0
3.805335 0.000000 0.000000
0.000000 3.805335 0.000000
0.000000 0.000000 9.172854
Ba Ta Cu O
1 1 1 5
direct
0.500000 0.500000 0.029303 Ba
0.000000 0.000000 0.708395 Ta
0.000000 0.000000 0.275306 Cu
0.500000 0.000000 0.663610 O
0.000000 0.500000 0.663610 O
0.500000 0.000000 0.235675 O
0.000000 0.500000 0.235675 O
0.000000 0.000000 0.912297 O
