Mn4 Cu2 O8
1.0
0.000000 4.259023 4.259023
4.259023 0.000000 4.259023
4.259023 4.259023 0.000000
Mn Cu O
4 2 8
direct
0.625000 0.625000 0.125000 Mn
0.625000 0.125000 0.625000 Mn
0.125000 0.625000 0.625000 Mn
0.625000 0.625000 0.625000 Mn
0.250000 0.250000 0.250000 Cu
0.000000 0.000000 0.000000 Cu
0.863988 0.863988 0.863988 O
0.841964 0.386012 0.386012 O
0.386012 0.386012 0.841964 O
0.386012 0.841964 0.386012 O
0.863988 0.863988 0.408036 O
0.863988 0.408036 0.863988 O
0.386012 0.386012 0.386012 O
0.408036 0.863988 0.863988 O
