Zn2 Cu4 O8
1.0
5.151203 -2.967915 0.000000
5.151203 2.967915 0.000000
3.441210 0.000000 4.847832
Zn Cu O
2 4 8
direct
0.007642 0.007642 0.007642 Zn
0.624813 0.624813 0.624813 Zn
0.246490 0.246490 0.246490 Cu
0.625056 0.625056 0.125590 Cu
0.125590 0.625056 0.625056 Cu
0.625056 0.125590 0.625056 Cu
0.375129 0.838682 0.375129 O
0.838682 0.375129 0.375129 O
0.375129 0.375129 0.838682 O
0.375543 0.375543 0.375543 O
0.872752 0.872752 0.872752 O
0.871175 0.871175 0.415767 O
0.415767 0.871175 0.871175 O
0.871175 0.415767 0.871175 O
