Ca4 Cu4 Ge8 O24
1.0
9.342913 0.000000 0.000000
0.000000 5.259751 0.000000
0.000000 2.430599 9.968122
Ca Cu Ge O
4 4 8 24
direct
0.453565 0.529724 0.284808 Ca
0.953565 0.970276 0.715192 Ca
0.546435 0.470276 0.715192 Ca
0.046435 0.029724 0.284808 Ca
0.659246 0.028578 0.225192 Cu
0.159246 0.471422 0.774808 Cu
0.340754 0.971422 0.774808 Cu
0.840754 0.528578 0.225192 Cu
0.349643 0.154804 0.050015 Ge
0.849643 0.345196 0.949985 Ge
0.650357 0.845196 0.949985 Ge
0.150357 0.654804 0.050015 Ge
0.351368 0.917600 0.493911 Ge
0.851368 0.582400 0.506089 Ge
0.648632 0.082400 0.506089 Ge
0.148632 0.417600 0.493911 Ge
0.251198 0.692273 0.401255 O
0.751198 0.807727 0.598745 O
0.748802 0.307727 0.598745 O
0.248802 0.192273 0.401255 O
0.307365 0.809315 0.103048 O
0.807365 0.690685 0.896953 O
0.692635 0.190685 0.896953 O
0.192635 0.309315 0.103048 O
0.978196 0.324871 0.435478 O
0.478196 0.175129 0.564522 O
0.021804 0.675129 0.564522 O
0.521804 0.824871 0.435478 O
0.014606 0.729425 0.150035 O
0.514606 0.770575 0.849965 O
0.985394 0.270575 0.849965 O
0.485394 0.229425 0.150035 O
0.365810 0.239344 0.874223 O
0.865810 0.260656 0.125777 O
0.634190 0.760656 0.125777 O
0.134190 0.739344 0.874223 O
0.320710 0.722283 0.661685 O
0.820710 0.777717 0.338315 O
0.679290 0.277717 0.338315 O
0.179290 0.222283 0.661685 O
