Gd8 Cu8 Mo16 O64
1.0
9.932893 0.000000 0.000000
0.000000 10.382018 0.000000
0.000000 0.000000 14.813295
Gd Cu Mo O
8 8 16 64
direct
0.777369 0.534659 0.603646 Gd
0.222631 0.965341 0.103646 Gd
0.277369 0.965341 0.603646 Gd
0.777369 0.034659 0.896354 Gd
0.222631 0.465341 0.396354 Gd
0.722631 0.534659 0.103646 Gd
0.722631 0.034659 0.396354 Gd
0.277369 0.465341 0.896354 Gd
0.308775 0.818093 0.804696 Cu
0.191225 0.318093 0.195304 Cu
0.308775 0.318093 0.695304 Cu
0.808775 0.181907 0.695304 Cu
0.691225 0.681907 0.304696 Cu
0.691225 0.181907 0.195304 Cu
0.191225 0.818093 0.304696 Cu
0.808775 0.681907 0.804696 Cu
0.830175 0.896711 0.152896 Mo
0.000216 0.780155 0.442770 Mo
0.499784 0.780155 0.942770 Mo
0.669825 0.896711 0.652896 Mo
0.999784 0.719845 0.942770 Mo
0.000216 0.280155 0.057230 Mo
0.169825 0.603289 0.652896 Mo
0.830175 0.396711 0.347104 Mo
0.330175 0.103289 0.347104 Mo
0.499784 0.280155 0.557230 Mo
0.669825 0.396711 0.847104 Mo
0.330175 0.603289 0.152896 Mo
0.500216 0.219845 0.057230 Mo
0.500216 0.719845 0.442770 Mo
0.169825 0.103289 0.847104 Mo
0.999784 0.219845 0.557230 Mo
0.756863 0.011276 0.727378 O
0.243137 0.488724 0.227378 O
0.243137 0.988724 0.272622 O
0.756863 0.511276 0.772622 O
0.608508 0.168968 0.501231 O
0.891492 0.668968 0.498769 O
0.094371 0.368353 0.975499 O
0.094371 0.868353 0.524501 O
0.905629 0.631647 0.024501 O
0.898334 0.386812 0.124305 O
0.601666 0.886812 0.875695 O
0.898334 0.886812 0.375695 O
0.108508 0.331032 0.501231 O
0.992275 0.587578 0.665995 O
0.007725 0.412422 0.334005 O
0.608508 0.668968 0.998769 O
0.007725 0.912422 0.165995 O
0.507725 0.587578 0.165995 O
0.611160 0.818382 0.368402 O
0.398334 0.613188 0.375695 O
0.492275 0.412422 0.834005 O
0.405629 0.868353 0.024501 O
0.225054 0.764871 0.681692 O
0.111160 0.681618 0.368402 O
0.388840 0.181618 0.631598 O
0.391492 0.331032 0.001231 O
0.274946 0.264871 0.318308 O
0.905629 0.131647 0.475499 O
0.611160 0.318382 0.131598 O
0.211635 0.575623 0.537859 O
0.888840 0.818382 0.868402 O
0.774946 0.235129 0.318308 O
0.743137 0.011276 0.227378 O
0.256863 0.988724 0.772622 O
0.992275 0.087578 0.834005 O
0.725054 0.735129 0.681692 O
0.225054 0.264871 0.818308 O
0.101666 0.113188 0.624305 O
0.211635 0.075623 0.962141 O
0.111160 0.181618 0.131598 O
0.391492 0.831032 0.498769 O
0.398334 0.113188 0.124305 O
0.711635 0.424377 0.962141 O
0.788365 0.924377 0.037859 O
0.594371 0.131647 0.975499 O
0.725054 0.235129 0.818308 O
0.594371 0.631647 0.524501 O
0.601666 0.386812 0.624305 O
0.101666 0.613188 0.875695 O
0.774946 0.735129 0.181692 O
0.788365 0.424377 0.462141 O
0.288365 0.075623 0.462141 O
0.388840 0.681618 0.868402 O
0.891492 0.168968 0.001231 O
0.888840 0.318382 0.631598 O
0.288365 0.575623 0.037859 O
0.492275 0.912422 0.665995 O
0.507725 0.087578 0.334005 O
0.743137 0.511276 0.272622 O
0.405629 0.368353 0.475499 O
0.274946 0.764871 0.181692 O
0.108508 0.831032 0.998769 O
0.256863 0.488724 0.727378 O
0.711635 0.924377 0.537859 O
