Ca2 Cu6 P6 O26
1.0
6.225872 0.000000 0.000000
0.000000 7.577332 0.000000
0.000000 1.791731 10.063260
Ca Cu P O
2 6 6 26
direct
0.750000 0.337351 0.194842 Ca
0.250000 0.662649 0.805158 Ca
0.250000 0.648995 0.201640 Cu
0.750000 0.351005 0.798360 Cu
0.250000 0.234866 0.435434 Cu
0.500000 0.000000 0.000000 Cu
0.750000 0.765134 0.564566 Cu
0.000000 0.000000 0.000000 Cu
0.250000 0.790474 0.483695 P
0.750000 0.209526 0.516305 P
0.250000 0.257010 0.759799 P
0.750000 0.742990 0.240201 P
0.750000 0.687641 0.887148 P
0.250000 0.312359 0.112852 P
0.750000 0.635398 0.744182 O
0.560845 0.247369 0.413373 O
0.250000 0.196901 0.625759 O
0.543593 0.794392 0.902265 O
0.750000 0.353228 0.605829 O
0.750000 0.119483 0.908161 O
0.250000 0.646772 0.394171 O
0.043593 0.205608 0.097735 O
0.250000 0.975308 0.397917 O
0.750000 0.024692 0.602083 O
0.061515 0.378732 0.788847 O
0.250000 0.880517 0.091839 O
0.561515 0.621268 0.211153 O
0.750000 0.497754 0.970006 O
0.750000 0.803099 0.374241 O
0.456407 0.205608 0.097735 O
0.939155 0.247369 0.413373 O
0.439155 0.752631 0.586627 O
0.438485 0.378732 0.788847 O
0.250000 0.364602 0.255818 O
0.750000 0.919445 0.133486 O
0.250000 0.080555 0.866514 O
0.938485 0.621268 0.211153 O
0.956407 0.794392 0.902265 O
0.060845 0.752631 0.586627 O
0.250000 0.502246 0.029994 O
