Mn6 Cu2 Te16 O40
1.0
   8.9386770000000002    0.0000000000000000    0.0000000000000000
   0.0000000000000000    8.9386770000000002    0.0000000000000000
   0.0000000000000000    0.0000000000000000   13.0349109999999992
Mn Cu Te O
6 2 16 40
direct
   0.0000000000000000    0.5000000000000000    0.2514880000000000 Mn
   0.5000000000000000    0.0000000000000000    0.2514880000000000 Mn
   0.5000000000000000    0.0000000000000000    0.7485120000000000 Mn
   0.0000000000000000    0.5000000000000000    0.7485120000000000 Mn
   0.0000000000000000    0.5000000000000000    0.0000000000000000 Mn
   0.5000000000000000    0.0000000000000000    0.0000000000000000 Mn
   0.5000000000000000    0.0000000000000000    0.5000000000000000 Cu
   0.0000000000000000    0.5000000000000000    0.5000000000000000 Cu
   0.3138050000000000    0.2873560000000000    0.8653870000000000 Te
   0.1861950000000000    0.7873559999999999    0.8653870000000000 Te
   0.8138050000000000    0.2126440000000000    0.8653870000000000 Te
   0.6861950000000000    0.7126440000000001    0.8653870000000000 Te
   0.2841400000000000    0.3192350000000000    0.3686330000000000 Te
   0.2158600000000000    0.8192350000000000    0.3686330000000000 Te
   0.7841399999999999    0.1807650000000000    0.3686330000000000 Te
   0.7158600000000001    0.6807650000000000    0.3686330000000000 Te
   0.1807650000000000    0.2158600000000000    0.6313670000000000 Te
   0.3192350000000000    0.7158600000000001    0.6313670000000000 Te
   0.6807650000000000    0.2841400000000000    0.6313670000000000 Te
   0.8192350000000000    0.7841399999999999    0.6313670000000000 Te
   0.2126440000000000    0.1861950000000000    0.1346130000000000 Te
   0.2873560000000000    0.6861950000000000    0.1346130000000000 Te
   0.7126440000000001    0.3138050000000000    0.1346130000000000 Te
   0.7873559999999999    0.8138050000000000    0.1346130000000000 Te
   0.8524940000000000    0.4212810000000000    0.8820970000000000 O
   0.6475060000000000    0.9212810000000000    0.8820970000000000 O
   0.3524940000000000    0.0787190000000000    0.8820970000000000 O
   0.1475060000000000    0.5787190000000000    0.8820970000000000 O
   0.4240310000000000    0.8655860000000000    0.3884750000000000 O
   0.0759690000000000    0.3655860000000000    0.3884750000000000 O
   0.9240310000000000    0.6344140000000000    0.3884750000000000 O
   0.5759690000000000    0.1344140000000000    0.3884750000000000 O
   0.6344140000000000    0.0759690000000000    0.6115250000000000 O
   0.8655860000000000    0.5759690000000000    0.6115250000000000 O
   0.1344140000000000    0.4240310000000000    0.6115250000000000 O
   0.3655860000000000    0.9240310000000000    0.6115250000000000 O
   0.0787190000000000    0.6475060000000000    0.1179030000000000 O
   0.4212810000000000    0.1475060000000000    0.1179030000000000 O
   0.5787190000000000    0.8524940000000000    0.1179030000000000 O
   0.9212810000000000    0.3524940000000000    0.1179030000000000 O
   0.1232350000000000    0.2754400000000000    0.7964220000000000 O
   0.3767650000000000    0.7754400000000000    0.7964220000000000 O
   0.6232350000000000    0.2245600000000000    0.7964220000000000 O
   0.8767650000000000    0.7245600000000000    0.7964220000000000 O
   0.2661590000000000    0.1294250000000000    0.2994000000000000 O
   0.2338410000000000    0.6294250000000000    0.2994000000000000 O
   0.7661590000000000    0.3705750000000000    0.2994000000000000 O
   0.7338410000000000    0.8705750000000000    0.2994000000000000 O
   0.3705750000000000    0.2338410000000000    0.7006000000000000 O
   0.1294250000000000    0.7338410000000000    0.7006000000000000 O
   0.8705750000000000    0.2661590000000000    0.7006000000000000 O
   0.6294250000000000    0.7661590000000000    0.7006000000000000 O
   0.2245600000000000    0.3767650000000000    0.2035780000000000 O
   0.2754400000000000    0.8767650000000000    0.2035780000000000 O
   0.7245600000000000    0.1232350000000000    0.2035780000000000 O
   0.7754400000000000    0.6232350000000000    0.2035780000000000 O
   0.3036460000000000    0.8036460000000000    0.0000000000000000 O
   0.1963540000000000    0.3036460000000000    0.0000000000000000 O
   0.8036460000000000    0.6963540000000000    0.0000000000000000 O
   0.6963540000000000    0.1963540000000000    0.0000000000000000 O
   0.7965470000000000    0.2965470000000000    0.5000000000000000 O
   0.7034530000000000    0.7965470000000000    0.5000000000000000 O
   0.2965470000000000    0.2034530000000000    0.5000000000000000 O
   0.2034530000000000    0.7034530000000000    0.5000000000000000 O
