Na2 Cu2 I4 O8
1.0
5.825200 5.746749 0.000000
-5.825200 5.746749 0.000000
0.000000 1.194518 5.300562
Na Cu I O
2 2 4 8
direct
0.633924 0.366076 0.250000 Na
0.366076 0.633924 0.750000 Na
0.005914 0.994086 0.250000 Cu
0.994086 0.005914 0.750000 Cu
0.999563 0.726136 0.057323 I
0.273864 0.000437 0.442677 I
0.000437 0.273864 0.942677 I
0.726136 0.999563 0.557323 I
0.689144 0.568968 0.722659 O
0.431032 0.310856 0.777341 O
0.310856 0.431032 0.277341 O
0.568968 0.689144 0.222659 O
0.778529 0.494725 0.564794 O
0.505275 0.221471 0.935206 O
0.221471 0.505275 0.435206 O
0.494725 0.778529 0.064794 O
