Ca2 Cu4 O8
1.0
0.000000 4.386636 4.386636
4.386636 0.000000 4.386636
4.386636 4.386636 0.000000
Ca Cu O
2 4 8
direct
0.000000 0.000000 0.000000 Ca
0.250000 0.250000 0.250000 Ca
0.625000 0.625000 0.625000 Cu
0.125000 0.625000 0.625000 Cu
0.625000 0.125000 0.625000 Cu
0.625000 0.625000 0.125000 Cu
0.817598 0.394134 0.394134 O
0.394134 0.817598 0.394134 O
0.394134 0.394134 0.817598 O
0.855866 0.855866 0.855866 O
0.855866 0.855866 0.432402 O
0.855866 0.432402 0.855866 O
0.394134 0.394134 0.394134 O
0.432402 0.855866 0.855866 O
