V1 Cu1 P2 S6
1.0
   5.9937440000000004    0.0000000000000000    0.0000000000000000
  -2.9404720000000002   -5.2462710000000001    0.0000000000000000
  -1.9792440000000000    0.0490960000000000   -6.8868980000000004
V Cu P S
1 1 2 6
direct
   0.3487430000000000    0.6515700000000000    0.0107810000000000 V
   0.5933270000000000    0.3340990000000000    0.7953890000000000 Cu
   0.0509010000000000    0.9991350000000000    0.1614890000000000 P
   0.9505120000000000    0.0052510000000000    0.8426340000000000 P
   0.5726170000000000    0.6982150000000000    0.7564860000000000 S
   0.1112350000000000    0.6921190000000000    0.2268050000000000 S
   0.7354570000000000    0.9683940000000000    0.2364910000000000 S
   0.2284880000000000    0.9572400000000000    0.7615590000000000 S
   0.9589630000000000    0.3488750000000000    0.7566600000000000 S
   0.3857560000000000    0.3471040000000000    0.2397050000000000 S
