Cu2 H4 N4 Cl8
1.0
   7.6653789999999997    0.0000000000000000    0.0000000000000000
   0.0000000000000000    7.6653789999999997    0.0000000000000000
   0.0000000000000000    0.0000000000000000    7.5421319999999996
Cu H N Cl
2 4 4 8
direct
   0.0000000000000000    0.0000000000000000    0.0000000000000000 Cu
   0.5000000000000000    0.5000000000000000    0.5000000000000000 Cu
   0.0000000000000000    0.0000000000000000    0.4047900000000000 H
   0.0000000000000000    0.0000000000000000    0.5952100000000000 H
   0.5000000000000000    0.5000000000000000    0.9047900000000000 H
   0.5000000000000000    0.5000000000000000    0.0952100000000000 H
   0.5000000000000000    0.0000000000000000    0.2500000000000000 N
   0.5000000000000000    0.0000000000000000    0.7500000000000000 N
   0.0000000000000000    0.5000000000000000    0.2500000000000000 N
   0.0000000000000000    0.5000000000000000    0.7500000000000000 N
   0.6310550000000000    0.3689450000000000    0.0000000000000000 Cl
   0.3689450000000000    0.6310550000000000    0.0000000000000000 Cl
   0.8689450000000000    0.8689450000000000    0.5000000000000000 Cl
   0.1310550000000000    0.1310550000000000    0.5000000000000000 Cl
   0.1882590000000000    0.1882590000000000    0.0000000000000000 Cl
   0.8117410000000000    0.8117410000000000    0.0000000000000000 Cl
   0.6882590000000000    0.3117410000000000    0.5000000000000000 Cl
   0.3117410000000000    0.6882590000000000    0.5000000000000000 Cl
