Rb1 Mg6 Cu1
1.0
   3.1416909999999998   -7.7200790000000001    0.0000000000000000
   3.1416909999999998    7.7200790000000001    0.0000000000000000
   0.0000000000000000    0.0000000000000000    4.5940190000000003
Rb Mg Cu
1 6 1
direct
   0.2829160000000000    0.7170840000000001    0.5000000000000000 Rb
   0.2085140000000000    0.3016170000000000    0.0000000000000000 Mg
   0.6983830000000000    0.7914860000000000    0.0000000000000000 Mg
   0.6836800000000000    0.3163200000000000    0.0000000000000000 Mg
   0.3231280000000000    0.1673970000000000    0.5000000000000000 Mg
   0.8326030000000000    0.6768720000000000    0.5000000000000000 Mg
   0.8732569999999999    0.1267430000000000    0.5000000000000000 Mg
   0.0975170000000000    0.9024830000000000    0.0000000000000000 Cu
