Pr2 Zn2 Cu4 O12
1.0
5.216947 0.000000 0.000000
0.000000 5.427238 0.000000
0.000000 0.000000 7.604947
Pr Zn Cu O
2 2 4 12
direct
0.011607 0.705992 0.000000 Pr
0.511607 0.294008 0.500000 Pr
0.474775 0.196738 0.000000 Zn
0.974775 0.803262 0.500000 Zn
0.999203 0.247116 0.751522 Cu
0.999203 0.247116 0.248478 Cu
0.499203 0.752884 0.251522 Cu
0.499203 0.752884 0.748478 Cu
0.071997 0.197847 0.500000 O
0.230890 0.986632 0.807339 O
0.230890 0.986632 0.192661 O
0.308671 0.447914 0.192287 O
0.308671 0.447914 0.807713 O
0.364162 0.727831 0.500000 O
0.571997 0.802153 0.000000 O
0.730890 0.013368 0.692661 O
0.730890 0.013368 0.307339 O
0.808671 0.552086 0.692287 O
0.808671 0.552086 0.307713 O
0.864162 0.272169 0.000000 O
