Sr1 Fe4 Cu3 O12
1.0
-3.736599 3.744755 -3.736732
3.745426 -3.736313 -3.737115
-3.727860 -3.727575 -3.728288
Sr Fe Cu O
1 4 3 12
direct
0.000000 0.000000 0.000000 Sr
0.999998 0.500000 0.000001 Fe
0.499999 0.499999 0.500000 Fe
0.500001 0.000002 0.999999 Fe
0.000003 0.000001 0.499999 Fe
0.499999 0.999999 0.500002 Cu
0.500002 0.500000 0.999999 Cu
0.000000 0.499998 0.499998 Cu
0.830268 0.514254 0.314608 O
0.169730 0.485744 0.685393 O
0.828339 0.145050 0.686529 O
0.171661 0.854950 0.313471 O
0.683984 0.169734 0.144865 O
0.316015 0.830266 0.855137 O
0.316710 0.171673 0.514864 O
0.683291 0.828328 0.485134 O
0.485749 0.316029 0.828845 O
0.514251 0.683971 0.171155 O
0.854931 0.683286 0.831578 O
0.145068 0.316714 0.168421 O
