Fe4 Cu4 Ge8 O26
1.0
8.709462 0.000000 0.000000
0.000000 4.967541 0.000000
0.000000 1.300641 12.128895
Fe Cu Ge O
4 4 8 26
direct
0.063673 0.045062 0.623290 Fe
0.563673 0.954938 0.376710 Fe
0.936327 0.954938 0.376710 Fe
0.436327 0.045062 0.623290 Fe
0.997889 0.042158 0.873732 Cu
0.497889 0.957842 0.126268 Cu
0.002111 0.957842 0.126268 Cu
0.502111 0.042158 0.873732 Cu
0.750000 0.392631 0.512166 Ge
0.250000 0.607369 0.487834 Ge
0.750000 0.606996 0.994371 Ge
0.250000 0.393004 0.005629 Ge
0.750000 0.671866 0.745813 Ge
0.250000 0.328134 0.254187 Ge
0.750000 0.514198 0.240465 Ge
0.250000 0.485802 0.759535 Ge
0.419948 0.200618 0.003129 O
0.919948 0.799382 0.996871 O
0.580052 0.799382 0.996871 O
0.080052 0.200618 0.003129 O
0.750000 0.718563 0.436007 O
0.250000 0.281437 0.563993 O
0.420220 0.130353 0.259269 O
0.920220 0.869647 0.740731 O
0.579780 0.869647 0.740731 O
0.079780 0.130353 0.259269 O
0.423721 0.793359 0.495877 O
0.923721 0.206641 0.504123 O
0.576279 0.206641 0.504123 O
0.076279 0.793359 0.495877 O
0.750000 0.447618 0.871682 O
0.250000 0.552382 0.128318 O
0.250000 0.788757 0.668429 O
0.750000 0.211243 0.331571 O
0.250000 0.568457 0.346141 O
0.750000 0.431543 0.653859 O
0.250000 0.632995 0.887715 O
0.750000 0.367005 0.112285 O
0.084312 0.279836 0.751217 O
0.584312 0.720164 0.248783 O
0.915688 0.720164 0.248783 O
0.415688 0.279836 0.751217 O
