Cu6 B12 O24
1.0
  -5.7455482299999998    5.7455690400000003    2.8130106300000000
   5.7455630500000003   -5.7455533900000004    2.8130064799999999
   5.7456008799999996    5.7456060300000003   -2.8129781600000001
Cu B O
6 12 24
direct
   0.7500051700000000    0.2500001600000000    0.5000045800000000 Cu
   0.4999960700000000    0.5000003100000000   -0.0000042800000000 Cu
   0.1249975600000000    0.7930724800000000    0.1680729000000000 Cu
   0.6249990100000000    0.9569277400000000    0.8319292900000000 Cu
   0.2069268600000000    0.3749988800000000    0.3319269400000000 Cu
   0.0430713000000000    0.8749974400000000    0.6680709000000000 Cu
   0.7998362700000000    0.2625318700000000    0.1674093600000000 B
   0.4501636200000000    0.1175728500000000    0.9626958700000000 B
   0.0951231300000000    0.6324275000000000    0.8325915800000000 B
   0.1548770000000000    0.4874682100000000    0.0373042300000000 B
   0.7374672200000000    0.9048757200000001    0.5373035700000000 B
   0.5125324600000000    0.5498363300000000    0.6674080999999999 B
   0.3675731700000000    0.2001641200000000    0.4626949500000000 B
   0.8824261600000000    0.8451211300000000    0.3325907000000000 B
   0.6249995699999999    0.3757410000000000    0.2507411400000000 B
   0.1249999500000000    0.3742596000000000    0.7492599599999999 B
   0.6242604899999999    0.8750008200000000    0.2492594900000000 B
   0.6257393900000000    0.3749985500000000    0.7507401000000000 B
   0.6747033200000000    0.0859887400000000    0.2716320200000000 O
   0.5752959600000001    0.3469278400000000    0.9112846500000000 O
   0.8143579700000000    0.4030716200000000    0.7283676900000000 O
   0.4356427300000000    0.6640100400000000    0.0887143300000000 O
   0.9140110800000000    0.1856432600000000    0.5887150400000000 O
   0.3359904500000000    0.4247044200000000    0.7716329900000000 O
   0.5969267900000000    0.3252955300000000    0.4112849200000000 O
   0.6530730900000000    0.5643590800000000    0.2283695400000000 O
   0.6250009399999999    0.1223009900000000    0.9973007800000000 O
   0.1249998800000000    0.6276988400000000    0.0026987200000000 O
   0.8777002800000000    0.8750012400000000    0.5026995900000000 O
   0.3723006800000000    0.3750008300000000    0.4973016600000000 O
   0.0414062400000000    0.3750002100000000    0.1664048800000000 O
   0.2085946600000000    0.8750000700000000    0.8335948000000000 O
   0.6249998600000000    0.7914054900000000    0.6664052300000000 O
   0.1250014800000000    0.9585957200000000    0.3335947900000000 O
   0.8602556200000000    0.4743878000000000    0.2382228000000000 O
   0.3897442700000000    0.1279674800000000    0.1141321800000000 O
   0.2361656700000000    0.6220331800000000    0.7617770300000000 O
   0.0138348600000000    0.2756118800000000    0.8858681300000000 O
   0.5256122900000000    0.7638347800000000    0.3858680900000000 O
   0.7243881300000000    0.6102556900000000    0.7382225500000000 O
   0.3779670900000000    0.1397442400000000    0.6141321400000000 O
   0.8720332500000000    0.9861652900000000    0.2617770400000000 O
