Sm1 Cu1 O2
1.0
5.818949 -1.841812 0.000000
5.818949 1.841812 0.000000
5.235979 0.000000 3.136393
Sm Cu O
1 1 2
direct
0.500000 0.500000 0.500000 Sm
0.000000 0.000000 0.000000 Cu
0.893749 0.893749 0.893749 O
0.106251 0.106251 0.106251 O
