Mg1 Cu3 Sb4 O12
1.0
-3.904281 3.904281 3.904281
3.904281 -3.904281 3.904281
3.904281 3.904281 -3.904281
Mg Cu Sb O
1 3 4 12
direct
0.000000 0.000000 0.000000 Mg
0.500000 0.000000 0.500000 Cu
0.500000 0.500000 0.000000 Cu
0.000000 0.500000 0.500000 Cu
0.000000 0.500000 0.000000 Sb
0.500000 0.000000 0.000000 Sb
0.500000 0.500000 0.500000 Sb
0.000000 0.000000 0.500000 Sb
0.298453 0.126805 0.828351 O
0.701547 0.873195 0.171649 O
0.701547 0.529898 0.828351 O
0.470102 0.171649 0.298453 O
0.171649 0.298453 0.470102 O
0.828351 0.298453 0.126805 O
0.873195 0.171649 0.701547 O
0.828351 0.701547 0.529898 O
0.298453 0.470102 0.171649 O
0.529898 0.828351 0.701547 O
0.171649 0.701547 0.873195 O
0.126805 0.828351 0.298453 O
