Ba4 Mg2 Cu2 Ag4 F28
1.0
  -5.3723910000000004    0.0000000000000000    0.0000000000000000
   2.6767159999999999    7.1741089999999996    0.0000000000000000
  -0.1008000000000000   -0.3963490000000000  -15.2768020000000000
Ba Mg Cu Ag F
4 2 2 4 28
direct
   0.7256570000000000    0.6301369999999999    0.3742930000000000 Ba
   0.9023510000000000    0.6296240000000000    0.8746330000000000 Ba
   0.2743430000000000    0.3698630000000000    0.6257070000000000 Ba
   0.0976490000000000    0.3703760000000000    0.1253670000000000 Ba
   0.4290700000000000    0.0021530000000000    0.2481900000000000 Mg
   0.5709300000000000    0.9978470000000000    0.7518100000000000 Mg
   0.5000000000000000    0.0000000000000000    0.0000000000000000 Cu
   0.5000000000000000    0.0000000000000000    0.5000000000000000 Cu
   0.8547140000000000    0.7657350000000001    0.1277550000000000 Ag
   0.1452860000000000    0.2342650000000000    0.8722450000000000 Ag
   0.9076130000000000    0.7668650000000000    0.6277650000000000 Ag
   0.0923870000000000    0.2331350000000000    0.3722350000000000 Ag
   0.8784870000000000    0.0280060000000000    0.6665880000000000 F
   0.5795720000000000    0.7166910000000000    0.5411810000000000 F
   0.4204280000000000    0.2833090000000000    0.4588190000000000 F
   0.1339420000000000    0.5107040000000000    0.4028780000000000 F
   0.5325560000000000    0.9143990000000000    0.3857240000000000 F
   0.6166140000000000    0.0839490000000000    0.1135640000000000 F
   0.1350370000000000    0.7162849999999999    0.0407650000000000 F
   0.8605440000000000    0.9717420000000000    0.8338480000000000 F
   0.0266750000000000    0.6544610000000000    0.2284340000000000 F
   0.8660580000000000    0.4892960000000000    0.5971220000000000 F
   0.5673550000000001    0.7917170000000000    0.2230070000000000 F
   0.6267330000000000    0.4884890000000000    0.0961660000000000 F
   0.2176920000000000    0.7892730000000000    0.7226910000000000 F
   0.4326450000000000    0.2082830000000000    0.7769930000000000 F
   0.3833860000000000    0.9160509999999999    0.8864360000000000 F
   0.9733250000000000    0.3455390000000000    0.7715660000000000 F
   0.2931970000000000    0.1501340000000000    0.9903710000000000 F
   0.1215130000000000    0.9719940000000000    0.3334120000000000 F
   0.7068030000000000    0.8498660000000000    0.0096290000000000 F
   0.8531720000000000    0.1512750000000000    0.4906650000000000 F
   0.8649630000000000    0.2837150000000000    0.9592349999999999 F
   0.7823080000000000    0.2107270000000000    0.2773090000000000 F
   0.6228620000000000    0.6581310000000000    0.7300080000000000 F
   0.1468280000000000    0.8487250000000000    0.5093350000000000 F
   0.4674440000000000    0.0856010000000000    0.6142760000000000 F
   0.1394560000000000    0.0282580000000000    0.1661520000000000 F
   0.3771380000000000    0.3418690000000000    0.2699920000000000 F
   0.3732670000000000    0.5115110000000000    0.9038340000000000 F
