Ca3 Cu6 As8 O32
1.0
5.032979 0.000000 0.000000
0.155196 9.486265 0.000000
0.084801 1.608339 14.857724
Ca Cu As O
3 6 8 32
direct
0.957414 0.044965 0.264171 Ca
0.989936 0.996468 0.993078 Ca
0.494654 0.503368 0.503284 Ca
0.966957 0.661359 0.117824 Cu
0.021217 0.332394 0.880274 Cu
0.481595 0.826147 0.383607 Cu
0.518579 0.169529 0.620332 Cu
0.499007 0.500018 0.999581 Cu
0.999595 0.000050 0.502530 Cu
0.501216 0.118970 0.839125 As
0.992362 0.655651 0.904125 As
0.495404 0.844880 0.596143 As
0.507758 0.154946 0.407863 As
0.495350 0.880168 0.159033 As
0.005007 0.343751 0.090988 As
0.997044 0.623663 0.337727 As
0.996888 0.379572 0.662119 As
0.941068 0.424403 0.770415 O
0.417307 0.753564 0.502520 O
0.904050 0.763229 0.815373 O
0.879720 0.210938 0.646803 O
0.097554 0.238703 0.181714 O
0.552371 0.920145 0.270290 O
0.405341 0.737210 0.684807 O
0.180178 0.097370 0.401975 O
0.141867 0.491457 0.406118 O
0.056648 0.577756 0.229965 O
0.611627 0.711024 0.146245 O
0.822730 0.901852 0.598084 O
0.811382 0.492588 0.929354 O
0.860804 0.515413 0.594257 O
0.161062 0.889025 0.140424 O
0.665923 0.634768 0.365890 O
0.312907 0.009455 0.571066 O
0.623839 0.231600 0.310493 O
0.666743 0.015302 0.103556 O
0.677434 0.403324 0.097407 O
0.328573 0.362445 0.634530 O
0.829506 0.135336 0.865390 O
0.576327 0.249535 0.497602 O
0.919540 0.745173 0.999344 O
0.191960 0.503921 0.073896 O
0.444853 0.075705 0.730255 O
0.108891 0.796784 0.349287 O
0.368732 0.984368 0.907811 O
0.086739 0.251034 0.999872 O
0.322369 0.596607 0.902578 O
0.701842 0.990951 0.426032 O
0.378375 0.289140 0.852028 O
