Ca4 Cu8 Bi8 O32
1.0
9.107968 0.000000 0.000000
0.000000 6.704522 0.000000
0.000000 0.202096 13.523205
Ca Cu Bi O
4 8 8 32
direct
0.159321 0.119771 0.040275 Ca
0.840679 0.880229 0.959725 Ca
0.659321 0.880229 0.459725 Ca
0.340679 0.119771 0.540275 Ca
0.191470 0.747134 0.881491 Cu
0.050517 0.375501 0.616947 Cu
0.949483 0.624499 0.383053 Cu
0.808530 0.252866 0.118509 Cu
0.308530 0.747134 0.381491 Cu
0.449483 0.375501 0.116947 Cu
0.691470 0.252866 0.618509 Cu
0.550517 0.624499 0.883053 Cu
0.449458 0.100328 0.835419 Bi
0.050542 0.100328 0.335419 Bi
0.094610 0.612134 0.143289 Bi
0.949458 0.899672 0.664581 Bi
0.905390 0.387866 0.856711 Bi
0.594610 0.387866 0.356711 Bi
0.405390 0.612134 0.643289 Bi
0.550542 0.899672 0.164581 Bi
0.257829 0.018505 0.387022 O
0.013780 0.645145 0.588829 O
0.581097 0.208949 0.490945 O
0.081097 0.791051 0.009055 O
0.242171 0.018505 0.887022 O
0.742171 0.981495 0.612978 O
0.100556 0.103875 0.606176 O
0.876702 0.508331 0.137974 O
0.623298 0.508331 0.637974 O
0.874696 0.306970 0.684590 O
0.374696 0.693030 0.815410 O
0.123298 0.491669 0.862026 O
0.899444 0.896125 0.393824 O
0.520556 0.864204 0.312753 O
0.247800 0.417249 0.584924 O
0.252200 0.417249 0.084924 O
0.020556 0.135796 0.187247 O
0.376702 0.491669 0.362026 O
0.479444 0.135796 0.687247 O
0.418903 0.791051 0.509055 O
0.486220 0.645145 0.088829 O
0.125304 0.693030 0.315410 O
0.757829 0.981495 0.112978 O
0.399444 0.103875 0.106176 O
0.918903 0.208949 0.990945 O
0.747800 0.582751 0.915076 O
0.986220 0.354855 0.411171 O
0.513780 0.354855 0.911171 O
0.600556 0.896125 0.893824 O
0.752200 0.582751 0.415076 O
0.625304 0.306970 0.184590 O
0.979444 0.864204 0.812753 O
