Cu3 Sn4 O12
1.0
-3.848785 3.848785 3.848785
3.848785 -3.848785 3.848785
3.848785 3.848785 -3.848785
Cu Sn O
3 4 12
direct
0.500000 0.500000 0.000000 Cu
0.500000 0.000000 0.500000 Cu
0.000000 0.500000 0.500000 Cu
0.000000 0.000000 0.500000 Sn
0.000000 0.500000 0.000000 Sn
0.500000 0.500000 0.500000 Sn
0.500000 0.000000 0.000000 Sn
0.323524 0.827667 0.151191 O
0.676476 0.172333 0.848809 O
0.676476 0.827667 0.504142 O
0.848809 0.676476 0.172333 O
0.827667 0.151191 0.323524 O
0.172333 0.495858 0.323524 O
0.495858 0.323524 0.172333 O
0.172333 0.848809 0.676476 O
0.323524 0.172333 0.495858 O
0.151191 0.323524 0.827667 O
0.827667 0.504142 0.676476 O
0.504142 0.676476 0.827667 O
