Al1 Cr4 Cu3 O12
1.0
-3.664280 3.664280 3.664280
3.664280 -3.664280 3.664280
3.664280 3.664280 -3.664280
Al Cr Cu O
1 4 3 12
direct
0.000000 0.000000 0.000000 Al
0.000000 0.000000 0.500000 Cr
0.000000 0.500000 0.000000 Cr
0.500000 0.000000 0.000000 Cr
0.500000 0.500000 0.500000 Cr
0.000000 0.500000 0.500000 Cu
0.500000 0.000000 0.500000 Cu
0.500000 0.500000 0.000000 Cu
0.302959 0.138773 0.835814 O
0.697041 0.861227 0.164186 O
0.697041 0.532855 0.835814 O
0.467145 0.164186 0.302959 O
0.164186 0.302959 0.467145 O
0.835814 0.302959 0.138773 O
0.861227 0.164186 0.697041 O
0.835814 0.697041 0.532855 O
0.302959 0.467145 0.164186 O
0.532855 0.835814 0.697041 O
0.164186 0.697041 0.861227 O
0.138773 0.835814 0.302959 O
