Ce1 Cu1 O3
1.0
   3.8328950000000002    0.0000000000000000    0.0000000000000000
   0.0000000000000000    3.8328950000000002    0.0000000000000000
   0.0000000000000000    0.0000000000000000    3.8328950000000002
Ce Cu O
1 1 3
direct
   0.5000000000000000    0.5000000000000000    0.5000000000000000 Ce
   0.0000000000000000    0.0000000000000000    0.0000000000000000 Cu
   0.0000000000000000    0.0000000000000000    0.5000000000000000 O
   0.0000000000000000    0.5000000000000000    0.0000000000000000 O
   0.5000000000000000    0.0000000000000000    0.0000000000000000 O
