Ca2 Cu4 O8
1.0
5.529659 -3.082348 0.000000
5.529659 3.082348 0.000000
3.811493 0.000000 5.054752
Ca Cu O
2 4 8
direct
0.020743 0.020743 0.020743 Ca
0.623410 0.623410 0.623410 Ca
0.237544 0.237544 0.237544 Cu
0.630864 0.120806 0.630864 Cu
0.630864 0.630864 0.120806 Cu
0.120806 0.630864 0.630864 Cu
0.824679 0.363488 0.363488 O
0.363488 0.363488 0.824679 O
0.363488 0.824679 0.363488 O
0.356261 0.356261 0.356261 O
0.877875 0.877875 0.877875 O
0.874255 0.451459 0.874255 O
0.874255 0.874255 0.451459 O
0.451459 0.874255 0.874255 O
