Sr4 Cu4 Ni2 O14
1.0
-2.564988 2.597771 12.559192
2.564988 -2.597771 12.559192
2.564988 2.597771 -12.559192
Sr Cu Ni O
4 4 2 14
direct
0.146340 0.628621 0.472680 Sr
0.853660 0.326340 0.482282 Sr
0.655941 0.128621 0.482282 Sr
0.344059 0.826340 0.472680 Sr
0.060337 0.038391 0.979124 Cu
0.939663 0.918787 0.978054 Cu
0.559267 0.538391 0.978054 Cu
0.440733 0.418787 0.979124 Cu
0.677350 0.781623 0.958973 Ni
0.322650 0.281623 0.104273 Ni
0.336616 0.647600 0.484216 O
0.663384 0.147600 0.310984 O
0.825647 0.304450 0.978661 O
0.174353 0.153014 0.478804 O
0.825789 0.804450 0.478804 O
0.174211 0.653014 0.978661 O
0.325338 0.804941 0.976866 O
0.674662 0.651528 0.479603 O
0.328075 0.304941 0.479603 O
0.671925 0.151528 0.976866 O
0.698429 0.649100 0.985204 O
0.301571 0.286776 0.950672 O
0.163896 0.149100 0.950672 O
0.836104 0.786776 0.985204 O
