Zn2 Cu2 P4 O14
1.0
6.285623 0.000000 0.000000
1.043431 6.206288 0.000000
2.544766 1.074328 6.489596
Zn Cu P O
2 2 4 14
direct
0.716848 0.110110 0.834562 Zn
0.283152 0.889890 0.165438 Zn
0.902604 0.329178 0.219384 Cu
0.097396 0.670822 0.780616 Cu
0.776194 0.834439 0.248843 P
0.223806 0.165561 0.751157 P
0.364087 0.382604 0.308832 P
0.635913 0.617396 0.691168 P
0.387997 0.235640 0.523190 O
0.612003 0.764360 0.476810 O
0.936303 0.000059 0.246125 O
0.063697 0.999941 0.753875 O
0.735207 0.388303 0.640972 O
0.264793 0.611697 0.359028 O
0.387377 0.629938 0.838190 O
0.612623 0.370062 0.161810 O
0.388026 0.057123 0.868683 O
0.611974 0.942877 0.131317 O
0.070104 0.360259 0.839443 O
0.929896 0.639741 0.160557 O
0.790592 0.737738 0.750155 O
0.209408 0.262262 0.249845 O
