Mg4 Cu8 Sb8 O32
1.0
8.713323 0.000000 0.000000
0.000000 6.582579 0.000000
0.000000 0.388616 12.298914
Mg Cu Sb O
4 8 8 32
direct
0.834491 0.892417 0.050718 Mg
0.165509 0.107583 0.949282 Mg
0.334491 0.107583 0.449282 Mg
0.665509 0.892417 0.550718 Mg
0.820654 0.239809 0.871056 Cu
0.940608 0.621013 0.624335 Cu
0.059392 0.378987 0.375665 Cu
0.179346 0.760191 0.128944 Cu
0.679346 0.239809 0.371056 Cu
0.559392 0.621013 0.124335 Cu
0.320654 0.760191 0.628944 Cu
0.440608 0.378987 0.875665 Cu
0.546751 0.902623 0.842522 Sb
0.953249 0.902623 0.342522 Sb
0.913940 0.392013 0.134752 Sb
0.046751 0.097377 0.657478 Sb
0.086060 0.607987 0.865248 Sb
0.413940 0.607987 0.365248 Sb
0.586060 0.392013 0.634752 Sb
0.453249 0.097377 0.157478 Sb
0.754079 0.967013 0.398457 O
0.977552 0.344917 0.589742 O
0.425337 0.812602 0.474605 O
0.925337 0.187398 0.025395 O
0.745921 0.967013 0.898457 O
0.245921 0.032987 0.601543 O
0.891697 0.909121 0.612402 O
0.118818 0.485230 0.148342 O
0.381182 0.485230 0.648342 O
0.126009 0.702752 0.714619 O
0.626009 0.297248 0.785381 O
0.881182 0.514770 0.851658 O
0.108303 0.090879 0.387598 O
0.461284 0.122876 0.310313 O
0.725207 0.592880 0.579599 O
0.774793 0.592880 0.079599 O
0.961284 0.877124 0.189687 O
0.618818 0.514770 0.351658 O
0.538716 0.877124 0.689687 O
0.574663 0.187398 0.525395 O
0.522448 0.344917 0.089742 O
0.873991 0.297248 0.285381 O
0.254079 0.032987 0.101543 O
0.608303 0.909121 0.112402 O
0.074663 0.812602 0.974605 O
0.225207 0.407120 0.920401 O
0.022448 0.655083 0.410258 O
0.477552 0.655083 0.910258 O
0.391697 0.090879 0.887598 O
0.274793 0.407120 0.420401 O
0.373991 0.702752 0.214619 O
0.038716 0.122876 0.810313 O
