Zn4 Cu4 As4 O20
1.0
5.875448 0.000000 0.000000
0.000000 7.770980 0.000000
0.000000 0.000000 8.813009
Zn Cu As O
4 4 4 20
direct
0.051515 0.808262 0.694512 Zn
0.448485 0.191738 0.194512 Zn
0.948485 0.308262 0.805488 Zn
0.551515 0.691738 0.305488 Zn
0.253219 0.750594 0.003598 Cu
0.246781 0.249406 0.503598 Cu
0.746781 0.250594 0.496402 Cu
0.753219 0.749406 0.996402 Cu
0.475338 0.094622 0.842448 As
0.024662 0.905378 0.342448 As
0.524662 0.594622 0.657552 As
0.975338 0.405378 0.157552 As
0.502784 0.893648 0.937160 O
0.997216 0.106352 0.437160 O
0.497216 0.393648 0.562840 O
0.002784 0.606352 0.062840 O
0.442311 0.245220 0.981077 O
0.057689 0.754780 0.481077 O
0.557689 0.745220 0.518923 O
0.942311 0.254780 0.018923 O
0.719473 0.119902 0.738670 O
0.780527 0.880098 0.238670 O
0.280527 0.619902 0.761330 O
0.219473 0.380098 0.261330 O
0.238431 0.079007 0.727970 O
0.261569 0.920993 0.227970 O
0.761569 0.579007 0.772030 O
0.738431 0.420993 0.272030 O
0.001715 0.862344 0.911310 O
0.498285 0.137656 0.411310 O
0.998285 0.362344 0.588690 O
0.501715 0.637656 0.088690 O
