Sr9 Zn3 Cu2 O14
1.0
3.667293 0.000000 0.000000
-0.000218 11.424831 0.000000
-1.822705 -1.665177 11.185306
Sr Zn Cu O
9 3 2 14
direct
0.301738 0.426422 0.611224 Sr
0.328457 0.084429 0.648477 Sr
0.313650 0.789822 0.632491 Sr
0.691586 0.219642 0.379167 Sr
0.484263 0.175759 0.970393 Sr
0.494296 0.498015 0.001919 Sr
0.697156 0.575864 0.392575 Sr
0.512271 0.811042 0.021537 Sr
0.689164 0.900674 0.374297 Sr
0.111701 0.703577 0.223264 Zn
0.104820 0.039637 0.205278 Zn
0.886289 0.298587 0.776882 Zn
0.887246 0.623741 0.788282 Cu
0.105033 0.376563 0.213568 Cu
0.793459 0.275515 0.594895 O
0.196831 0.070315 0.390053 O
0.021085 0.353614 0.054344 O
0.909510 0.141250 0.822081 O
0.188132 0.401355 0.378640 O
0.403806 0.365051 0.812925 O
0.793144 0.927581 0.588436 O
0.202916 0.728565 0.405929 O
0.582303 0.093051 0.160567 O
0.804683 0.599206 0.623164 O
0.968947 0.647699 0.947933 O
0.428982 0.909384 0.840411 O
0.085556 0.863285 0.171801 O
0.594019 0.639782 0.188016 O
