Y2 Mg1 Cu1 O4
1.0
  -1.9670204499999999    2.0417442700000001    7.3492062999999996
   2.0417442700000001   -1.9670204499999999    7.3492062999999996
   1.9669401700000000    1.9669401700000000   -7.3229791700000000
Y Mg Cu O
2 1 1 4
direct
   0.3445728900000000    0.3445728900000000    0.9785365700000000 Y
   0.5992433200000000    0.5992433200000000    0.0146531700000000 Y
   0.7900850200000000    0.7900850200000000    0.9876120400000000 Mg
   0.9751867300000000    0.9751867300000000    0.0005084100000000 Cu
   0.5323854800000000    0.0388020600000000    0.5139894100000000 O
   0.7711682900000000    0.2714732100000000    0.4901470000000000 O
   0.0388020600000000    0.5323854800000000    0.5139894100000000 O
   0.2714732100000000    0.7711682900000000    0.4901470000000000 O
