Cu12 P8 H8 O36
1.0
3.124174 8.965380 0.000000
-3.124174 8.965380 0.000000
0.000000 3.212435 11.891072
Cu P H O
12 8 8 36
direct
0.837674 0.663382 0.907246 Cu
0.336618 0.162326 0.592754 Cu
0.162326 0.336618 0.092754 Cu
0.663382 0.837674 0.407246 Cu
0.724996 0.092106 0.860226 Cu
0.907894 0.275004 0.639774 Cu
0.275004 0.907894 0.139774 Cu
0.092106 0.724996 0.360226 Cu
0.517884 0.708628 0.815861 Cu
0.291372 0.482116 0.684139 Cu
0.482116 0.291372 0.184139 Cu
0.708628 0.517884 0.315861 Cu
0.648392 0.860877 0.142351 P
0.139123 0.351608 0.357649 P
0.351608 0.139123 0.857649 P
0.860877 0.648392 0.642351 P
0.250967 0.606216 0.903338 P
0.393784 0.749033 0.596662 P
0.749033 0.393784 0.096662 P
0.606216 0.250967 0.403338 P
0.036414 0.015360 0.868186 H
0.984640 0.963586 0.631814 H
0.963586 0.984640 0.131814 H
0.015360 0.036414 0.368186 H
0.816882 0.274473 0.904520 H
0.725527 0.183119 0.595480 H
0.183118 0.725527 0.095480 H
0.274473 0.816882 0.404520 H
0.840420 0.653100 0.070954 O
0.346900 0.159580 0.429046 O
0.159580 0.346900 0.929046 O
0.653100 0.840420 0.570954 O
0.012627 0.764555 0.866486 O
0.235445 0.987373 0.633514 O
0.987373 0.235445 0.133514 O
0.764555 0.012627 0.366486 O
0.282738 0.748578 0.881708 O
0.251422 0.717262 0.618292 O
0.717262 0.251422 0.118292 O
0.748578 0.282738 0.381708 O
0.588148 0.999728 0.889407 O
0.000272 0.411853 0.610593 O
0.411853 0.000272 0.110593 O
0.999728 0.588148 0.389407 O
0.328827 0.993129 0.879301 O
0.006871 0.671173 0.620699 O
0.671173 0.006871 0.120699 O
0.993129 0.328827 0.379301 O
0.593905 0.572196 0.676677 O
0.427804 0.406095 0.823323 O
0.406095 0.427804 0.323323 O
0.572196 0.593905 0.176677 O
0.724902 0.485583 0.972947 O
0.514417 0.275098 0.527053 O
0.275098 0.514417 0.027053 O
0.485583 0.724902 0.472947 O
0.872046 0.167068 0.854927 O
0.832932 0.127954 0.645073 O
0.127954 0.832932 0.145073 O
0.167068 0.872046 0.354927 O
0.666028 0.765805 0.268463 O
0.234195 0.333972 0.231537 O
0.333972 0.234195 0.731537 O
0.765805 0.666028 0.768463 O
