Mg1 Cu2 As1 O7
1.0
5.116670 0.000000 0.000000
-0.735073 -5.279808 0.000000
-2.495139 0.052451 -5.415071
Mg Cu As O
1 2 1 7
direct
0.505317 0.452877 0.869590 Mg
0.234339 0.951126 0.582177 Cu
0.008508 0.430150 0.373327 Cu
0.002560 0.992410 0.008436 As
0.207006 0.841663 0.279724 O
0.707299 0.800132 0.823432 O
0.347198 0.281828 0.519920 O
0.883070 0.265316 0.062623 O
0.132086 0.622124 0.657244 O
0.655354 0.541567 0.243423 O
0.236262 0.097807 0.869105 O
