Gd3 Al3 Cu3
1.0
   3.5361184500000000   -6.1245220199999997    0.0000000000000000
   3.5304928000000002    6.1212736599999999    0.0000000000000000
   0.0000000000000000    0.0000000000000000    4.0249482299999997
Gd Al Cu
3 3 3
direct
   0.4159337800000000    0.4167321500000000   -0.0000000000000000 Gd
   0.5837666800000000    0.0000013600000000    0.0000000000000000 Gd
   0.9992020300000000    0.5832614500000000   -0.0000000000000000 Gd
   0.7689131200000000    0.7686496900000001    0.5000000000000000 Al
   0.2303668500000000   -0.0000008700000000    0.5000000000000000 Al
   0.0002588700000000    0.2313455400000000    0.5000000000000000 Al
   0.6678854300000000    0.3334144200000000    0.5000000000000000 Cu
   0.3344687200000000    0.6666022800000000    0.5000000000000000 Cu
   0.9992035200000000    0.9999939900000000   -0.0000000000000000 Cu
