Cu8 H40 Pb32 S8 O88
1.0
  11.7352450000000008    0.0000000000000000    0.0000000000000000
   0.0000000000000000   14.2186489999999992    0.0000000000000000
   0.0000000000000000    2.5838920000000001   14.5267239999999997
Cu H Pb S O
8 40 32 8 88
direct
   0.5064250000000000    0.7618710000000000    0.2077420000000000 Cu
   0.0064250000000000    0.2381290000000000    0.2922580000000000 Cu
   0.4935750000000000    0.2381290000000000    0.7922580000000000 Cu
   0.9935750000000000    0.7618710000000000    0.7077420000000000 Cu
   0.2532830000000000    0.4945850000000000    0.0206660000000000 Cu
   0.7532830000000000    0.5054149999999999    0.4793340000000000 Cu
   0.7467170000000000    0.5054149999999999    0.9793340000000000 Cu
   0.2467170000000000    0.4945850000000000    0.5206660000000000 Cu
   0.4300060000000000    0.6066020000000000    0.2778720000000000 H
   0.9300060000000000    0.3933980000000000    0.2221280000000000 H
   0.5699940000000000    0.3933980000000000    0.7221280000000000 H
   0.0699940000000000    0.6066020000000000    0.7778720000000000 H
   0.5777510000000000    0.6056100000000000    0.1889460000000000 H
   0.0777510000000000    0.3943900000000000    0.3110540000000000 H
   0.4222490000000000    0.3943900000000000    0.8110540000000001 H
   0.9222490000000000    0.6056100000000000    0.6889459999999999 H
   0.5912900000000000    0.9113450000000000    0.1454390000000000 H
   0.0912900000000000    0.0886550000000000    0.3545610000000000 H
   0.4087100000000000    0.0886550000000000    0.8545610000000000 H
   0.9087100000000000    0.9113450000000000    0.6454390000000000 H
   0.4095580000000000    0.9074490000000000    0.2159320000000000 H
   0.9095580000000000    0.0925510000000000    0.2840680000000000 H
   0.5904420000000000    0.0925510000000000    0.7840680000000000 H
   0.0904420000000000    0.9074490000000000    0.7159320000000000 H
   0.3284500000000000    0.5374719999999999    0.1586870000000000 H
   0.8284500000000000    0.4625280000000000    0.3413130000000000 H
   0.6715500000000000    0.4625280000000000    0.8413130000000000 H
   0.1715500000000000    0.5374719999999999    0.6586870000000000 H
   0.1754250000000000    0.4460200000000000    0.8840080000000000 H
   0.6754250000000001    0.5539800000000000    0.6159920000000000 H
   0.8245749999999999    0.5539800000000000    0.1159920000000000 H
   0.3245750000000000    0.4460200000000000    0.3840080000000000 H
   0.3225750000000000    0.5513760000000000    0.8666830000000000 H
   0.8225749999999999    0.4486240000000000    0.6333170000000000 H
   0.6774250000000001    0.4486240000000000    0.1333170000000000 H
   0.1774250000000000    0.5513760000000000    0.3666830000000000 H
   0.1812660000000000    0.4482650000000000    0.1715900000000000 H
   0.6812660000000000    0.5517350000000000    0.3284100000000000 H
   0.8187340000000000    0.5517350000000000    0.8284100000000000 H
   0.3187340000000000    0.4482650000000000    0.6715900000000000 H
   0.7356920000000000    0.0321900000000000    0.1046050000000000 H
   0.2356920000000000    0.9678099999999999    0.3953950000000000 H
   0.2643080000000000    0.9678099999999999    0.8953950000000001 H
   0.7643080000000000    0.0321900000000000    0.6046049999999999 H
   0.0089120000000000    0.8838970000000000    0.2402700000000000 H
   0.5089120000000000    0.1161030000000000    0.2597300000000000 H
   0.9910880000000000    0.1161030000000000    0.7597300000000000 H
   0.4910880000000000    0.8838970000000000    0.7402700000000000 H
   0.7768800000000000    0.7802930000000000    0.3199000000000000 Pb
   0.2768800000000000    0.2197070000000000    0.1801000000000000 Pb
   0.2231200000000000    0.2197070000000000    0.6801000000000000 Pb
   0.7231200000000000    0.7802930000000000    0.8199000000000000 Pb
   0.4776410000000000    0.8915710000000000    0.4180390000000000 Pb
   0.9776410000000000    0.1084290000000000    0.0819610000000000 Pb
   0.5223590000000000    0.1084290000000000    0.5819610000000000 Pb
   0.0223590000000000    0.8915710000000000    0.9180390000000000 Pb
   0.4944890000000000    0.9000460000000000    0.9349270000000000 Pb
   0.9944890000000000    0.0999540000000000    0.5650730000000000 Pb
   0.5055110000000000    0.0999540000000000    0.0650730000000000 Pb
   0.0055110000000000    0.9000460000000000    0.4349270000000000 Pb
   0.2474910000000000    0.7458290000000000    0.0928610000000000 Pb
   0.7474910000000000    0.2541710000000000    0.4071390000000000 Pb
   0.7525090000000000    0.2541710000000000    0.9071390000000000 Pb
   0.2525090000000000    0.7458290000000000    0.5928610000000000 Pb
   0.7324060000000000    0.7650970000000000    0.5663030000000000 Pb
   0.2324060000000000    0.2349030000000000    0.9336970000000000 Pb
   0.2675940000000000    0.2349030000000000    0.4336970000000000 Pb
   0.7675940000000000    0.7650970000000000    0.0663030000000000 Pb
   0.2783320000000000    0.7708240000000000    0.8455210000000000 Pb
   0.7783320000000000    0.2291760000000000    0.6544790000000000 Pb
   0.7216680000000000    0.2291760000000000    0.1544790000000000 Pb
   0.2216680000000000    0.7708240000000000    0.3455210000000000 Pb
   0.5091070000000000    0.6343850000000000    0.9939340000000000 Pb
   0.0091070000000000    0.3656150000000000    0.5060660000000000 Pb
   0.4908930000000000    0.3656150000000000    0.0060660000000000 Pb
   0.9908930000000000    0.6343850000000000    0.4939340000000000 Pb
   0.5008920000000000    0.6371460000000000    0.4576850000000000 Pb
   0.0008920000000000    0.3628540000000000    0.0423150000000000 Pb
   0.4991080000000000    0.3628540000000000    0.5423150000000000 Pb
   0.9991080000000000    0.6371460000000000    0.9576850000000000 Pb
   0.4967980000000000    0.5811539999999999    0.7352510000000000 S
   0.9967980000000000    0.4188460000000000    0.7647490000000000 S
   0.5032020000000000    0.4188460000000000    0.2647490000000000 S
   0.0032020000000000    0.5811539999999999    0.2352510000000000 S
   0.7178930000000000    0.0119030000000000    0.4149140000000000 S
   0.2178930000000000    0.9880970000000000    0.0850860000000000 S
   0.2821070000000000    0.9880970000000000    0.5850860000000000 S
   0.7821070000000000    0.0119030000000000    0.9149140000000000 S
   0.5973560000000000    0.5174200000000000    0.7228480000000000 O
   0.0973560000000000    0.4825800000000000    0.7771520000000000 O
   0.4026440000000000    0.4825800000000000    0.2771520000000000 O
   0.9026440000000000    0.5174200000000000    0.2228480000000000 O
   0.5246230000000000    0.6379120000000000    0.8076960000000000 O
   0.0246230000000000    0.3620880000000000    0.6923040000000000 O
   0.4753770000000000    0.3620880000000000    0.1923040000000000 O
   0.9753770000000000    0.6379120000000000    0.3076960000000000 O
   0.3949020000000000    0.5177130000000000    0.7646590000000000 O
   0.8949020000000000    0.4822870000000000    0.7353410000000000 O
   0.6050980000000000    0.4822870000000000    0.2353410000000000 O
   0.1050980000000000    0.5177130000000000    0.2646590000000000 O
   0.4713250000000000    0.6449350000000000    0.6461750000000001 O
   0.9713250000000000    0.3550650000000000    0.8538249999999999 O
   0.5286750000000000    0.3550650000000000    0.3538250000000000 O
   0.0286750000000000    0.6449350000000000    0.1461750000000000 O
   0.8274340000000000    0.0665930000000000    0.4117230000000000 O
   0.3274340000000000    0.9334070000000000    0.0882770000000000 O
   0.1725660000000000    0.9334070000000000    0.5882770000000000 O
   0.6725660000000000    0.0665930000000000    0.9117230000000000 O
   0.6215760000000000    0.0823600000000000    0.3971000000000000 O
   0.1215760000000000    0.9176400000000000    0.1029000000000000 O
   0.3784240000000000    0.9176400000000000    0.6029000000000000 O
   0.8784240000000000    0.0823600000000000    0.8971000000000000 O
   0.7184040000000000    0.9488150000000000    0.3444340000000000 O
   0.2184040000000000    0.0511850000000000    0.1555660000000000 O
   0.2815960000000000    0.0511850000000000    0.6555660000000000 O
   0.7815960000000000    0.9488150000000000    0.8444340000000000 O
   0.7012060000000000    0.9523940000000000    0.5094030000000001 O
   0.2012060000000000    0.0476060000000000    0.9905969999999999 O
   0.2987940000000000    0.0476060000000000    0.4905970000000000 O
   0.7987940000000000    0.9523940000000000    0.0094030000000000 O
   0.8607550000000000    0.7623580000000000    0.4547280000000000 O
   0.3607550000000000    0.2376420000000000    0.0452720000000000 O
   0.1392450000000000    0.2376420000000000    0.5452720000000000 O
   0.6392450000000000    0.7623580000000000    0.9547280000000000 O
   0.6047580000000000    0.7709500000000000    0.4365030000000000 O
   0.1047580000000000    0.2290500000000000    0.0634970000000000 O
   0.3952420000000000    0.2290500000000000    0.5634970000000000 O
   0.8952420000000000    0.7709500000000000    0.9365030000000000 O
   0.3564080000000000    0.7615450000000000    0.4624710000000000 O
   0.8564079999999999    0.2384550000000000    0.0375290000000000 O
   0.6435920000000001    0.2384550000000000    0.5375290000000000 O
   0.1435920000000000    0.7615450000000000    0.9624710000000000 O
   0.3913540000000000    0.7587850000000000    0.9810219999999999 O
   0.8913540000000000    0.2412150000000000    0.5189780000000001 O
   0.6086460000000000    0.2412150000000000    0.0189780000000000 O
   0.1086460000000000    0.7587850000000000    0.4810220000000000 O
   0.4352240000000000    0.6712210000000000    0.2949650000000000 O
   0.9352240000000001    0.3287790000000000    0.2050350000000000 O
   0.5647759999999999    0.3287790000000000    0.7050350000000000 O
   0.0647760000000000    0.6712210000000000    0.7949650000000000 O
   0.5707570000000000    0.6693840000000000    0.1487530000000000 O
   0.0707570000000000    0.3306160000000000    0.3512470000000000 O
   0.4292430000000000    0.3306160000000000    0.8512470000000000 O
   0.9292430000000000    0.6693840000000000    0.6487530000000000 O
   0.5771500000000001    0.8527150000000000    0.1205660000000000 O
   0.0771500000000000    0.1472850000000000    0.3794340000000000 O
   0.4228500000000000    0.1472850000000000    0.8794340000000000 O
   0.9228499999999999    0.8527150000000000    0.6205660000000000 O
   0.4410410000000000    0.8574030000000000    0.2640770000000000 O
   0.9410410000000000    0.1425970000000000    0.2359230000000000 O
   0.5589590000000000    0.1425970000000000    0.7359230000000000 O
   0.0589590000000000    0.8574030000000000    0.7640770000000000 O
   0.3127890000000000    0.5742850000000000    0.0965160000000000 O
   0.8127890000000000    0.4257150000000000    0.4034840000000000 O
   0.6872110000000000    0.4257150000000000    0.9034840000000000 O
   0.1872110000000000    0.5742850000000000    0.5965160000000000 O
   0.1995900000000000    0.4117730000000000    0.9456940000000000 O
   0.6995900000000000    0.5882270000000001    0.5543060000000000 O
   0.8004100000000000    0.5882270000000001    0.0543060000000000 O
   0.3004100000000000    0.4117730000000000    0.4456940000000000 O
   0.3021380000000000    0.5825150000000000    0.9197820000000000 O
   0.8021380000000000    0.4174850000000000    0.5802180000000000 O
   0.6978620000000000    0.4174850000000000    0.0802180000000000 O
   0.1978620000000000    0.5825150000000000    0.4197820000000000 O
   0.1962920000000000    0.4108320000000000    0.1223370000000000 O
   0.6962920000000000    0.5891680000000000    0.3776630000000000 O
   0.8037080000000000    0.5891680000000000    0.8776630000000000 O
   0.3037080000000000    0.4108320000000000    0.6223370000000000 O
   0.6858620000000000    0.0662860000000000    0.1420640000000000 O
   0.1858620000000000    0.9337140000000000    0.3579360000000000 O
   0.3141380000000000    0.9337140000000000    0.8579360000000000 O
   0.8141380000000000    0.0662860000000000    0.6420640000000000 O
   0.9693349999999999    0.8515610000000000    0.2956000000000000 O
   0.4693350000000000    0.1484390000000000    0.2044000000000000 O
   0.0306650000000000    0.1484390000000000    0.7044000000000000 O
   0.5306650000000001    0.8515610000000000    0.7956000000000000 O
