K2 V6 Cu10 O26
1.0
6.151583 0.000000 0.000000
-0.085620 8.305550 0.000000
-0.522845 -1.505673 10.785107
K V Cu O
2 6 10 26
direct
0.752315 0.479144 0.598500 K
0.247685 0.520856 0.401500 K
0.240062 0.125215 0.494397 V
0.759938 0.874785 0.505603 V
0.259234 0.179501 0.121818 V
0.256820 0.471923 0.788195 V
0.743180 0.528077 0.211805 V
0.740766 0.820499 0.878182 V
0.000690 0.105250 0.771276 Cu
0.742582 0.192126 0.354652 Cu
0.267595 0.854476 0.938796 Cu
0.225445 0.604890 0.104080 Cu
0.491506 0.893637 0.232628 Cu
0.732405 0.145524 0.061204 Cu
0.508494 0.106363 0.767372 Cu
0.257418 0.807874 0.645348 Cu
0.774555 0.395110 0.895920 Cu
0.999310 0.894750 0.228724 Cu
0.243349 0.051539 0.656684 O
0.454916 0.250106 0.480837 O
0.251252 0.576878 0.663132 O
0.980076 0.656514 0.222229 O
0.756651 0.948461 0.343316 O
0.021030 0.118561 0.189563 O
0.002925 0.230820 0.467346 O
0.236688 0.382704 0.121421 O
0.256017 0.962726 0.381419 O
0.271066 0.617443 0.924658 O
0.232682 0.843708 0.116357 O
0.748748 0.423122 0.336868 O
0.513562 0.132083 0.203605 O
0.763312 0.617296 0.878579 O
0.481056 0.344346 0.779098 O
0.727530 0.912035 0.031886 O
0.728934 0.382557 0.075342 O
0.545084 0.749894 0.519163 O
0.997075 0.769180 0.532654 O
0.743983 0.037274 0.618581 O
0.978970 0.881439 0.810437 O
0.767318 0.156292 0.883643 O
0.486438 0.867917 0.796395 O
0.518944 0.655654 0.220902 O
0.019924 0.343486 0.777771 O
0.272470 0.087965 0.968114 O
