Ca2 Cu4 O8
1.0
-2.766340 2.766340 6.400434
2.766340 -2.766340 6.400434
2.766340 2.766340 -6.400434
Ca Cu O
2 4 8
direct
0.500000 0.500000 0.000000 Ca
0.250000 0.750000 0.500000 Ca
0.875000 0.125000 0.250000 Cu
0.375000 0.125000 0.250000 Cu
0.875000 0.625000 0.750000 Cu
0.875000 0.125000 0.750000 Cu
0.658954 0.879565 0.779388 O
0.120435 0.899823 0.779388 O
0.120435 0.341046 0.220612 O
0.091046 0.370435 0.720612 O
0.649823 0.370435 0.279388 O
0.629565 0.350177 0.720612 O
0.100177 0.879565 0.220612 O
0.629565 0.908954 0.279388 O
