Ti4 Al4 Cu4
1.0
  -2.4508329999999998   -4.3529700000000000    0.0000000000000000
  -2.5438760000000000    4.4066960000000002    0.0000000000000000
   0.0000000000000000    0.0000000000000000   -8.0914099999999998
Ti Al Cu
4 4 4
direct
   0.6682220000000000    0.3341090000000000    0.5574550000000000 Ti
   0.3269170000000000    0.6634470000000000    0.4309970000000000 Ti
   0.3269170000000000    0.6634470000000000    0.0690030000000000 Ti
   0.6682220000000000    0.3341090000000000    0.9425450000000000 Ti
   0.9881700000000000    0.9940830000000000    0.4886590000000000 Al
   0.9881700000000000    0.9940830000000000    0.0113410000000000 Al
   0.1828950000000000    0.3481180000000000    0.7500000000000000 Al
   0.1828980000000000    0.8347710000000000    0.7500000000000000 Al
   0.6714010000000000    0.8356910000000000    0.7500000000000000 Cu
   0.8269230000000000    0.6518910000000000    0.2500000000000000 Cu
   0.8269170000000000    0.1750650000000000    0.2500000000000000 Cu
   0.3423470000000000    0.1711860000000000    0.2500000000000000 Cu
