Li4 Cu3 Sb1 O8
1.0
5.163419 -3.015115 0.000000
5.163419 3.015115 0.000000
3.402779 0.000000 4.916595
Li Cu Sb O
4 3 1 8
direct
0.500000 0.500000 0.500000 Li
0.500000 0.000000 0.000000 Li
0.000000 0.000000 0.500000 Li
0.000000 0.500000 0.000000 Li
0.000000 0.500000 0.500000 Cu
0.500000 0.500000 0.000000 Cu
0.500000 0.000000 0.500000 Cu
0.000000 0.000000 0.000000 Sb
0.733008 0.733008 0.733008 O
0.768576 0.236798 0.236798 O
0.236798 0.236798 0.768576 O
0.266992 0.266992 0.266992 O
0.236798 0.768576 0.236798 O
0.231424 0.763202 0.763202 O
0.763202 0.763202 0.231424 O
0.763202 0.231424 0.763202 O
