Cu8 Te8 Br8
1.0
   0.0000000000000000   11.4459239999999998   11.6172839999999997
   2.5833990000000000    0.0000000000000000   11.6172839999999997
   2.5833990000000000   11.4459239999999998    0.0000000000000000
Cu Te Br
8 8 8
direct
   0.0000000000000000    0.0000000000000000    0.0000000000000000 Cu
   0.5000000000000000    0.5000000000000000    0.5000000000000000 Cu
   0.8642090000000000    0.1357910000000000    0.8642090000000000 Cu
   0.1142090000000000    0.3857910000000000    0.1142090000000000 Cu
   0.7500000000000000    0.7500000000000000    0.7500000000000000 Cu
   0.1357910000000000    0.8642090000000000    0.1357910000000000 Cu
   0.2500000000000000    0.2500000000000000    0.2500000000000000 Cu
   0.3857910000000000    0.1142090000000000    0.3857910000000000 Cu
   0.7393090000000000    0.6562500000000000    0.1467710000000000 Te
   0.4576700000000000    0.1467710000000000    0.6562500000000000 Te
   0.1032290000000000    0.7923300000000000    0.5106910000000000 Te
   0.1467710000000000    0.4576700000000000    0.7393090000000000 Te
   0.5106910000000000    0.5937500000000000    0.1032290000000000 Te
   0.7923300000000000    0.1032290000000000    0.5937500000000000 Te
   0.6562500000000000    0.7393090000000000    0.4576700000000000 Te
   0.5937500000000000    0.5106910000000000    0.7923300000000000 Te
   0.8812330000000000    0.2478910000000000    0.2511630000000000 Br
   0.6197140000000000    0.2511630000000000    0.2478910000000000 Br
   0.2478910000000000    0.8812330000000000    0.6197140000000000 Br
   0.6302860000000000    0.9988370000000000    0.0021090000000000 Br
   0.9988370000000000    0.6302860000000000    0.3687670000000000 Br
   0.2511630000000000    0.6197140000000000    0.8812330000000000 Br
   0.0021090000000000    0.3687670000000000    0.6302860000000000 Br
   0.3687670000000000    0.0021090000000000    0.9988370000000000 Br
