In4 Cu1 Ag3 Te8
1.0
   6.5237270000000001    0.0000000000000000    0.0000000000000000
   0.0000000000000000    6.5237270000000001    0.0000000000000000
   0.0000000000000000    0.0000000000000000   12.8339149999999993
In Cu Ag Te
4 1 3 8
direct
   0.5000000000000000    0.0000000000000000    0.2523180000000000 In
   0.0000000000000000    0.5000000000000000    0.7476820000000000 In
   0.5000000000000000    0.5000000000000000    0.0000000000000000 In
   0.0000000000000000    0.0000000000000000    0.5000000000000000 In
   0.5000000000000000    0.5000000000000000    0.5000000000000000 Cu
   0.0000000000000000    0.5000000000000000    0.2515260000000000 Ag
   0.5000000000000000    0.0000000000000000    0.7484740000000000 Ag
   0.0000000000000000    0.0000000000000000    0.0000000000000000 Ag
   0.7379480000000000    0.2679880000000000    0.3812010000000000 Te
   0.2493760000000000    0.7569530000000000    0.8745140000000000 Te
   0.2620520000000000    0.7320120000000000    0.3812010000000000 Te
   0.7506240000000000    0.2430470000000000    0.8745140000000000 Te
   0.2430470000000000    0.2493760000000000    0.1254860000000000 Te
   0.7320120000000000    0.7379480000000000    0.6187990000000000 Te
   0.7569530000000000    0.7506240000000000    0.1254860000000000 Te
   0.2679880000000000    0.2620520000000000    0.6187990000000000 Te
