Li8 Cu4 P4 O16
1.0
6.203594 0.000000 0.000000
0.000000 5.132195 0.000000
0.000000 0.121174 10.858379
Li Cu P O
8 4 4 16
direct
0.252873 0.203661 0.338561 Li
0.747127 0.203661 0.338561 Li
0.000000 0.804410 0.427371 Li
0.751305 0.802337 0.658138 Li
0.000000 0.695569 0.923336 Li
0.743937 0.303207 0.837633 Li
0.256063 0.303207 0.837633 Li
0.248695 0.802337 0.658138 Li
0.500000 0.225201 0.119455 Cu
0.696585 0.749177 0.168292 Cu
0.303415 0.749177 0.168292 Cu
0.500000 0.248222 0.607030 Cu
0.500000 0.796368 0.893680 P
0.000000 0.310723 0.585000 P
0.500000 0.691330 0.414493 P
0.000000 0.189962 0.083402 P
0.199074 0.284053 0.159718 O
0.800926 0.284053 0.159718 O
0.000000 0.885922 0.078337 O
0.199738 0.202470 0.657950 O
0.000000 0.306318 0.951232 O
0.291241 0.806053 0.351302 O
0.707928 0.697399 0.828319 O
0.292072 0.697399 0.828319 O
0.500000 0.098307 0.898513 O
0.800262 0.202470 0.657950 O
0.000000 0.613346 0.585590 O
0.500000 0.770045 0.551371 O
0.000000 0.206840 0.451633 O
0.500000 0.389572 0.404116 O
0.708759 0.806053 0.351302 O
0.500000 0.671150 0.025615 O
