Rb2 Pr1 Cu1 Cl6
1.0
   0.0000000000000000    5.3025719999999996    5.3025719999999996
   5.3025719999999996    0.0000000000000000    5.3025719999999996
   5.3025719999999996    5.3025719999999996    0.0000000000000000
Rb Pr Cu Cl
2 1 1 6
direct
   0.7500000000000000    0.7500000000000000    0.7500000000000000 Rb
   0.2500000000000000    0.2500000000000000    0.2500000000000000 Rb
   0.5000000000000000    0.5000000000000000    0.5000000000000000 Pr
   0.0000000000000000    0.0000000000000000    0.0000000000000000 Cu
   0.7592340000000000    0.2407660000000000    0.2407660000000000 Cl
   0.2407660000000000    0.2407660000000000    0.7592340000000000 Cl
   0.2407660000000000    0.7592340000000000    0.7592340000000000 Cl
   0.2407660000000000    0.7592340000000000    0.2407660000000000 Cl
   0.7592340000000000    0.2407660000000000    0.7592340000000000 Cl
   0.7592340000000000    0.7592340000000000    0.2407660000000000 Cl
