Cu12 Mo4 S4 O36
1.0
6.879697 0.000000 0.000000
0.000000 7.543686 0.000000
0.000000 0.000000 13.725752
Cu Mo S O
12 4 4 36
direct
0.250000 0.326266 0.053597 Cu
0.750000 0.673734 0.946403 Cu
0.750000 0.173734 0.553597 Cu
0.250000 0.826266 0.446403 Cu
0.250000 0.656586 0.658992 Cu
0.750000 0.343414 0.341008 Cu
0.750000 0.843414 0.158992 Cu
0.250000 0.156586 0.841008 Cu
0.000000 0.500000 0.500000 Cu
0.000000 0.000000 0.000000 Cu
0.500000 0.500000 0.500000 Cu
0.500000 0.000000 0.000000 Cu
0.250000 0.747534 0.185340 Mo
0.750000 0.252466 0.814660 Mo
0.750000 0.752466 0.685340 Mo
0.250000 0.247534 0.314660 Mo
0.250000 0.667705 0.899798 S
0.750000 0.332295 0.100202 S
0.750000 0.832295 0.399798 S
0.250000 0.167705 0.600202 S
0.250000 0.603839 0.518244 O
0.750000 0.396161 0.481756 O
0.750000 0.896161 0.018244 O
0.250000 0.103839 0.981756 O
0.530818 0.629591 0.651525 O
0.469182 0.370409 0.348475 O
0.469182 0.870409 0.151525 O
0.030818 0.370409 0.348475 O
0.530818 0.129591 0.848475 O
0.969182 0.629591 0.651525 O
0.969182 0.129591 0.848475 O
0.030818 0.870409 0.151525 O
0.250000 0.701216 0.311201 O
0.750000 0.298784 0.688799 O
0.750000 0.798784 0.811201 O
0.250000 0.201216 0.188799 O
0.250000 0.725641 0.796497 O
0.750000 0.274359 0.203503 O
0.750000 0.774359 0.296497 O
0.250000 0.225641 0.703503 O
0.250000 0.539050 0.124739 O
0.750000 0.460950 0.875261 O
0.750000 0.960950 0.624739 O
0.250000 0.039050 0.375261 O
0.250000 0.971923 0.590458 O
0.750000 0.028077 0.409542 O
0.750000 0.528077 0.090458 O
0.250000 0.471923 0.909542 O
0.074094 0.742604 0.949691 O
0.925906 0.257396 0.050309 O
0.925906 0.757396 0.449691 O
0.574094 0.257396 0.050309 O
0.074094 0.242604 0.550309 O
0.425906 0.742604 0.949691 O
0.425906 0.242604 0.550309 O
0.574094 0.757396 0.449691 O
