Mg4 Cu4 O10
1.0
3.750746 0.000000 0.000000
0.000000 4.756443 0.000000
0.000000 0.000000 10.305351
Mg Cu O
4 4 10
direct
0.000000 0.711238 0.900667 Mg
0.000000 0.288762 0.099333 Mg
0.000000 0.211238 0.599333 Mg
0.000000 0.788762 0.400667 Mg
0.500000 0.712820 0.634231 Cu
0.500000 0.287180 0.365769 Cu
0.500000 0.787180 0.134231 Cu
0.500000 0.212820 0.865769 Cu
0.500000 0.000000 0.500000 O
0.500000 0.678333 0.326001 O
0.500000 0.178333 0.173999 O
0.500000 0.821667 0.826001 O
0.000000 0.773522 0.106643 O
0.000000 0.226478 0.893357 O
0.500000 0.321667 0.673999 O
0.000000 0.726478 0.606643 O
0.500000 0.500000 0.000000 O
0.000000 0.273522 0.393357 O
