V8 Cu8 O32
1.0
8.480565 0.000000 0.000000
0.000000 6.398742 0.000000
0.000000 0.121667 11.739437
V Cu O
8 8 32
direct
0.544730 0.896213 0.846053 V
0.955270 0.896213 0.346053 V
0.907109 0.399369 0.135863 V
0.044730 0.103787 0.653947 V
0.092891 0.600631 0.864137 V
0.407109 0.600631 0.364137 V
0.592891 0.399369 0.635863 V
0.455270 0.103787 0.153947 V
0.827340 0.223851 0.872912 Cu
0.944451 0.627391 0.627386 Cu
0.055549 0.372609 0.372614 Cu
0.172660 0.776149 0.127088 Cu
0.672660 0.223851 0.372912 Cu
0.555549 0.627391 0.127386 Cu
0.327340 0.776149 0.627088 Cu
0.444451 0.372609 0.872614 Cu
0.759170 0.961415 0.382690 O
0.991997 0.348818 0.593955 O
0.397258 0.793313 0.462256 O
0.897258 0.206687 0.037744 O
0.740830 0.961415 0.882690 O
0.240830 0.038585 0.617310 O
0.909573 0.911218 0.608041 O
0.100738 0.503815 0.134843 O
0.399262 0.503815 0.634843 O
0.128474 0.687360 0.712390 O
0.628474 0.312640 0.787610 O
0.899262 0.496185 0.865157 O
0.090427 0.088782 0.391959 O
0.476152 0.127873 0.298676 O
0.732023 0.580821 0.599284 O
0.767977 0.580821 0.099284 O
0.976152 0.872127 0.201324 O
0.600738 0.496185 0.365157 O
0.523848 0.872127 0.701324 O
0.602742 0.206687 0.537744 O
0.508003 0.348818 0.093955 O
0.871526 0.312640 0.287610 O
0.259170 0.038585 0.117310 O
0.590427 0.911218 0.108041 O
0.102742 0.793313 0.962256 O
0.232023 0.419179 0.900716 O
0.008003 0.651182 0.406045 O
0.491997 0.651182 0.906045 O
0.409573 0.088782 0.891959 O
0.267977 0.419179 0.400716 O
0.371526 0.687360 0.212390 O
0.023848 0.127873 0.798676 O
